cho-3co2                                
   1.00000000000000     
     7.6522998810000002    0.0000000000000000    0.0000000000000000
    -3.8261499405000001    6.6270860943000001    0.0000000000000000
     0.0000000000000000    0.0000000000000000   27.4960994720000009
   Cu   C    O    H    N 
    36     4     7     1     2
Selective dynamics
Direct
  0.9991281029097029  0.9997433352429856  0.2882553067161567   T   T   T
  0.1111100020012330  0.2222200040024589  0.2147500070005535   F   F   F
  0.2222200039975064  0.1111100020012330  0.1389999989995658   F   F   F
  0.2183170478697995  0.1040507308033656  0.3620069124183257   T   T   T
  0.0023117924069221  0.3345811978831577  0.2889234722056175   T   T   T
  0.1111100020002453  0.5555599930060779  0.2147500070005535   F   F   F
  0.2222200039935416  0.4444400069939221  0.1389999989995658   F   F   F
  0.2230186133491336  0.4377273098041906  0.3653232373731474   T   T   T
  0.9993175390717493  0.6651791575588032  0.2880755660741722   T   T   T
  0.1111100019933033  0.8888900279968723  0.2147500070005535   F   F   F
  0.2222200039925610  0.7777799959975411  0.1389999989995658   F   F   F
  0.2191961399326689  0.7767578424977604  0.3621236282136473   T   T   T
  0.3341398991930051 -0.0000469292011120  0.2882715121498067   T   T   T
  0.4444400070018517  0.2222200040024589  0.2147500070005535   F   F   F
  0.5555599930031008  0.1111100020012330  0.1389999989995658   F   F   F
  0.5555512828923113  0.1129649409898151  0.3624426257941431   T   T   T
  0.3332597131001359  0.3329447224867149  0.2880511461903141   T   T   T
  0.4444400070008712  0.5555599930060779  0.2147500070005535   F   F   F
  0.5555599929991288  0.4444400069939221  0.1389999989995658   F   F   F
  0.5489238706346555  0.4380299440838423  0.3654504761327582   T   T   T
  0.3345860960496875  0.6652434459457427  0.2896627930664321   T   T   T
  0.4444400069939292  0.8888900279968723  0.2147500070005535   F   F   F
  0.5555599929981483  0.7777799959975411  0.1389999989995658   F   F   F
  0.5613511070774482  0.7901794141574632  0.3653717340795872   T   T   T
  0.6656133774316677  0.9979861622043751  0.2890200906365983   T   T   T
  0.7777799960074390  0.2222200040024589  0.2147500070005535   F   F   F
  0.8888900279947052  0.1111100020012330  0.1389999989995658   F   F   F
  0.8906654109469980  0.1130768066529507  0.3624938039684467   T   T   T
  0.6653506250301890  0.3346304324363716  0.2889393416360123   T   T   T
  0.7777799960064584  0.5555599930060779  0.2147500070005535   F   F   F
  0.8888900279907404  0.4444400069939221  0.1389999989995658   F   F   F
  0.8889493416765339  0.4443032809359446  0.3626728535124457   T   T   T
  0.6640656328011139  0.6654857504894059  0.2896247016369889   T   T   T
  0.7777799959995164  0.8888900279968723  0.2147500070005535   F   F   F
  0.8888900280028196  0.7777799959975411  0.1389999989995658   F   F   F
  0.8904255752509612  0.7766411803093123  0.3621721346024561   T   T   T
  0.4180182332874064  0.4869932436556776  0.4252350894852530   T   T   T
  0.2170836063454260  0.2478093669060918  0.5796011957344510   T   T   T
  0.7310190589124911  0.2497948949276817  0.5819642779512282   T   T   T
  0.7215524668703249  0.7407211985858484  0.5820826518689748   T   T   T
  0.4982833133391949  0.6695918384604040  0.4379563279391872   T   T   T
  0.2346636991471739  0.1669627609862121  0.5450768531583677   T   T   T
  0.1996524015014867  0.3286252340457501  0.6140878601963657   T   T   T
  0.6742388700276283  0.3113917453918395  0.6138230338744692   T   T   T
  0.7876188614115393  0.1881665826192744  0.5500542697385677   T   T   T
  0.8293327355392803  0.8506392140046488  0.6122818271044518   T   T   T
  0.6132116062737876  0.6307487730425172  0.5519760540388094   T   T   T
  0.3620075218173838  0.3744111289624766  0.4552511196611768   T   T   T
  0.1604477277671019  0.7106051687814273  0.5800779554008408   T   T   T
  0.3178923823187917  0.8141704814003015  0.5924687194349599   T   T   T
 
  0.00000000E+00  0.00000000E+00  0.00000000E+00
  0.00000000E+00  0.00000000E+00  0.00000000E+00
  0.00000000E+00  0.00000000E+00  0.00000000E+00
  0.00000000E+00  0.00000000E+00  0.00000000E+00
  0.00000000E+00  0.00000000E+00  0.00000000E+00
  0.00000000E+00  0.00000000E+00  0.00000000E+00
  0.00000000E+00  0.00000000E+00  0.00000000E+00
  0.00000000E+00  0.00000000E+00  0.00000000E+00
  0.00000000E+00  0.00000000E+00  0.00000000E+00
  0.00000000E+00  0.00000000E+00  0.00000000E+00
  0.00000000E+00  0.00000000E+00  0.00000000E+00
  0.00000000E+00  0.00000000E+00  0.00000000E+00
  0.00000000E+00  0.00000000E+00  0.00000000E+00
  0.00000000E+00  0.00000000E+00  0.00000000E+00
  0.00000000E+00  0.00000000E+00  0.00000000E+00
  0.00000000E+00  0.00000000E+00  0.00000000E+00
  0.00000000E+00  0.00000000E+00  0.00000000E+00
  0.00000000E+00  0.00000000E+00  0.00000000E+00
  0.00000000E+00  0.00000000E+00  0.00000000E+00
  0.00000000E+00  0.00000000E+00  0.00000000E+00
  0.00000000E+00  0.00000000E+00  0.00000000E+00
  0.00000000E+00  0.00000000E+00  0.00000000E+00
  0.00000000E+00  0.00000000E+00  0.00000000E+00
  0.00000000E+00  0.00000000E+00  0.00000000E+00
  0.00000000E+00  0.00000000E+00  0.00000000E+00
  0.00000000E+00  0.00000000E+00  0.00000000E+00
  0.00000000E+00  0.00000000E+00  0.00000000E+00
  0.00000000E+00  0.00000000E+00  0.00000000E+00
  0.00000000E+00  0.00000000E+00  0.00000000E+00
  0.00000000E+00  0.00000000E+00  0.00000000E+00
  0.00000000E+00  0.00000000E+00  0.00000000E+00
  0.00000000E+00  0.00000000E+00  0.00000000E+00
  0.00000000E+00  0.00000000E+00  0.00000000E+00
  0.00000000E+00  0.00000000E+00  0.00000000E+00
  0.00000000E+00  0.00000000E+00  0.00000000E+00
  0.00000000E+00  0.00000000E+00  0.00000000E+00
  0.00000000E+00  0.00000000E+00  0.00000000E+00
  0.00000000E+00  0.00000000E+00  0.00000000E+00
  0.00000000E+00  0.00000000E+00  0.00000000E+00
  0.00000000E+00  0.00000000E+00  0.00000000E+00
  0.00000000E+00  0.00000000E+00  0.00000000E+00
  0.00000000E+00  0.00000000E+00  0.00000000E+00
  0.00000000E+00  0.00000000E+00  0.00000000E+00
  0.00000000E+00  0.00000000E+00  0.00000000E+00
  0.00000000E+00  0.00000000E+00  0.00000000E+00
  0.00000000E+00  0.00000000E+00  0.00000000E+00
  0.00000000E+00  0.00000000E+00  0.00000000E+00
  0.00000000E+00  0.00000000E+00  0.00000000E+00
  0.00000000E+00  0.00000000E+00  0.00000000E+00
  0.00000000E+00  0.00000000E+00  0.00000000E+00
