co-3co2                                 
   1.00000000000000     
     7.6522998810000002    0.0000000000000000    0.0000000000000000
    -3.8261499405000001    6.6270860943000001    0.0000000000000000
     0.0000000000000000    0.0000000000000000   27.4960994720000009
   Cu   C    O    N 
    36     4     7     2
Selective dynamics
Direct
  0.9995298207347239  0.0000624596198037  0.2882165710859592   T   T   T
  0.1111100020012330  0.2222200040024589  0.2147500070005535   F   F   F
  0.2222200039975064  0.1111100020012330  0.1389999989995658   F   F   F
  0.2204293199783202  0.1078247858064599  0.3621668532744972   T   T   T
  0.0020511346155593  0.3344182443561011  0.2889953604401255   T   T   T
  0.1111100020002453  0.5555599930060779  0.2147500070005535   F   F   F
  0.2222200039935416  0.4444400069939221  0.1389999989995658   F   F   F
  0.2208738050058271  0.4436084716513242  0.3651522196448764   T   T   T
  0.9994788933657826  0.6658880568359309  0.2882016972297890   T   T   T
  0.1111100019933033  0.8888900279968723  0.2147500070005535   F   F   F
  0.2222200039925610  0.7777799959975411  0.1389999989995658   F   F   F
  0.2203669127677758  0.7788188108126174  0.3621206770352190   T   T   T
  0.3336561996740475  0.0000804146473710  0.2882159943260222   T   T   T
  0.4444400070018517  0.2222200040024589  0.2147500070005535   F   F   F
  0.5555599930031008  0.1111100020012330  0.1389999989995658   F   F   F
  0.5554626855663322  0.1109266931021753  0.3626183619777967   T   T   T
  0.3337834827749671  0.3343341820001494  0.2886634869416767   T   T   T
  0.4444400070008712  0.5555599930060779  0.2147500070005535   F   F   F
  0.5555599929991288  0.4444400069939221  0.1389999989995658   F   F   F
  0.5557577539107998  0.4434292921523014  0.3653125937373672   T   T   T
  0.3336825753697345  0.6659508507697622  0.2886271329045400   T   T   T
  0.4444400069939292  0.8888900279968723  0.2147500070005535   F   F   F
  0.5555599929981483  0.7777799959975411  0.1389999989995658   F   F   F
  0.5556195679276307  0.7784136008224688  0.3651368932546762   T   T   T
  0.6652876903276402  0.9977336516956753  0.2889874013466075   T   T   T
  0.7777799960074390  0.2222200040024589  0.2147500070005535   F   F   F
  0.8888900279947052  0.1111100020012330  0.1389999989995658   F   F   F
  0.8884350600545498  0.1109770384722295  0.3625596785156081   T   T   T
  0.6652422890224249  0.3343968810406914  0.2890421814749219   T   T   T
  0.7777799960064584  0.5555599930060779  0.2147500070005535   F   F   F
  0.8888900279907404  0.4444400069939221  0.1389999989995658   F   F   F
  0.8884350422180962  0.4438188938984732  0.3626360188724365   T   T   T
  0.6651495085381155  0.6657946415436887  0.2886552352114888   T   T   T
  0.7777799959995164  0.8888900279968723  0.2147500070005535   F   F   F
  0.8888900280028196  0.7777799959975411  0.1389999989995658   F   F   F
  0.8912521235679297  0.7787227851220918  0.3621130501321619   T   T   T
  0.4436100016597812  0.5546021859547243  0.4169808750297513   T   T   T
  0.2292908292655954  0.2476200579577191  0.5833051504968029   T   T   T
  0.7281648021083537  0.2469259325679286  0.5883410595328585   T   T   T
  0.2232488791789265  0.7452407243124871  0.5829805948521264   T   T   T
  0.4435227990101021  0.5554202238078284  0.4599670813299867   T   T   T
  0.2952745113245457  0.1777846350141629  0.5558007286148888   T   T   T
  0.1632924765782774  0.3171736836876311  0.6109000392063212   T   T   T
  0.7248121790298054  0.3350008009132408  0.6230699033598626   T   T   T
  0.7315528932858774  0.1590587631947016  0.5535949834327044   T   T   T
  0.1218832366662091  0.6541004381857540  0.5497195975469097   T   T   T
  0.3244197071113633  0.8362742261923959  0.6162793457754250   T   T   T
  0.6412646035171086  0.6782306826321913  0.5787613839468764   T   T   T
  0.8015195285697088  0.7964248392956980  0.5849119516468061   T   T   T
 
  0.00000000E+00  0.00000000E+00  0.00000000E+00
  0.00000000E+00  0.00000000E+00  0.00000000E+00
  0.00000000E+00  0.00000000E+00  0.00000000E+00
  0.00000000E+00  0.00000000E+00  0.00000000E+00
  0.00000000E+00  0.00000000E+00  0.00000000E+00
  0.00000000E+00  0.00000000E+00  0.00000000E+00
  0.00000000E+00  0.00000000E+00  0.00000000E+00
  0.00000000E+00  0.00000000E+00  0.00000000E+00
  0.00000000E+00  0.00000000E+00  0.00000000E+00
  0.00000000E+00  0.00000000E+00  0.00000000E+00
  0.00000000E+00  0.00000000E+00  0.00000000E+00
  0.00000000E+00  0.00000000E+00  0.00000000E+00
  0.00000000E+00  0.00000000E+00  0.00000000E+00
  0.00000000E+00  0.00000000E+00  0.00000000E+00
  0.00000000E+00  0.00000000E+00  0.00000000E+00
  0.00000000E+00  0.00000000E+00  0.00000000E+00
  0.00000000E+00  0.00000000E+00  0.00000000E+00
  0.00000000E+00  0.00000000E+00  0.00000000E+00
  0.00000000E+00  0.00000000E+00  0.00000000E+00
  0.00000000E+00  0.00000000E+00  0.00000000E+00
  0.00000000E+00  0.00000000E+00  0.00000000E+00
  0.00000000E+00  0.00000000E+00  0.00000000E+00
  0.00000000E+00  0.00000000E+00  0.00000000E+00
  0.00000000E+00  0.00000000E+00  0.00000000E+00
  0.00000000E+00  0.00000000E+00  0.00000000E+00
  0.00000000E+00  0.00000000E+00  0.00000000E+00
  0.00000000E+00  0.00000000E+00  0.00000000E+00
  0.00000000E+00  0.00000000E+00  0.00000000E+00
  0.00000000E+00  0.00000000E+00  0.00000000E+00
  0.00000000E+00  0.00000000E+00  0.00000000E+00
  0.00000000E+00  0.00000000E+00  0.00000000E+00
  0.00000000E+00  0.00000000E+00  0.00000000E+00
  0.00000000E+00  0.00000000E+00  0.00000000E+00
  0.00000000E+00  0.00000000E+00  0.00000000E+00
  0.00000000E+00  0.00000000E+00  0.00000000E+00
  0.00000000E+00  0.00000000E+00  0.00000000E+00
  0.00000000E+00  0.00000000E+00  0.00000000E+00
  0.00000000E+00  0.00000000E+00  0.00000000E+00
  0.00000000E+00  0.00000000E+00  0.00000000E+00
  0.00000000E+00  0.00000000E+00  0.00000000E+00
  0.00000000E+00  0.00000000E+00  0.00000000E+00
  0.00000000E+00  0.00000000E+00  0.00000000E+00
  0.00000000E+00  0.00000000E+00  0.00000000E+00
  0.00000000E+00  0.00000000E+00  0.00000000E+00
  0.00000000E+00  0.00000000E+00  0.00000000E+00
  0.00000000E+00  0.00000000E+00  0.00000000E+00
  0.00000000E+00  0.00000000E+00  0.00000000E+00
  0.00000000E+00  0.00000000E+00  0.00000000E+00
  0.00000000E+00  0.00000000E+00  0.00000000E+00
