cho                                     
   1.00000000000000     
     7.6522998810000002    0.0000000000000000    0.0000000000000000
    -3.8261499405000001    6.6270860943000001    0.0000000000000000
     0.0000000000000000    0.0000000000000000   27.4960994720000009
   Cu   C    O    H    N 
    36     2     3     1     6
Selective dynamics
Direct
  0.9991696239258911 -0.0005185259026271  0.2883530273533477   T   T   T
  0.1111100020012330  0.2222200040024589  0.2147500070005535   F   F   F
  0.2222200039975064  0.1111100020012330  0.1389999989995658   F   F   F
  0.2195238565929321  0.1086867712095162  0.3625905666353076   T   T   T
 -0.0005884850217643  0.3334300343954842  0.2881330848583047   T   T   T
  0.1111100020002453  0.5555599930060779  0.2147500070005535   F   F   F
  0.2222200039935416  0.4444400069939221  0.1389999989995658   F   F   F
  0.2179084342470410  0.4407760377303800  0.3623056067171513   T   T   T
  0.9991770093073258  0.6656909328895032  0.2881881655347133   T   T   T
  0.1111100019933033  0.8888900279968723  0.2147500070005535   F   F   F
  0.2222200039925610  0.7777799959975411  0.1389999989995658   F   F   F
  0.2195402618377919  0.7780646143774631  0.3624129698494773   T   T   T
  0.3336488877886929  0.0006606669491868  0.2884362332320308   T   T   T
  0.4444400070018517  0.2222200040024589  0.2147500070005535   F   F   F
  0.5555599930031008  0.1111100020012330  0.1389999989995658   F   F   F
  0.5544549880823390  0.1114711925001160  0.3625726404275723   T   T   T
  0.3344582754837258  0.3339772998596264  0.2885463114815735   T   T   T
  0.4444400070008712  0.5555599930060779  0.2147500070005535   F   F   F
  0.5555599929991288  0.4444400069939221  0.1389999989995658   F   F   F
  0.5531265826639535  0.4408832071904072  0.3655652087472658   T   T   T
  0.3347395792309346  0.6665570161312970  0.2892602715534721   T   T   T
  0.4444400069939292  0.8888900279968723  0.2147500070005535   F   F   F
  0.5555599929981483  0.7777799959975411  0.1389999989995658   F   F   F
  0.5553405392027397  0.7856329262739233  0.3652357534488773   T   T   T
  0.6652999117327605  0.9981994310821585  0.2890349805778931   T   T   T
  0.7777799960074390  0.2222200040024589  0.2147500070005535   F   F   F
  0.8888900279947052  0.1111100020012330  0.1389999989995658   F   F   F
  0.8895698776290055  0.1125228988919661  0.3622169237056340   T   T   T
  0.6646773762896908  0.3344871129893432  0.2889228684971233   T   T   T
  0.7777799960064584  0.5555599930060779  0.2147500070005535   F   F   F
  0.8888900279907404  0.4444400069939221  0.1389999989995658   F   F   F
  0.8890570357630697  0.4443752538554785  0.3624307369584975   T   T   T
  0.6644051390841212  0.6661023253281282  0.2894986500481472   T   T   T
  0.7777799959995164  0.8888900279968723  0.2147500070005535   F   F   F
  0.8888900280028196  0.7777799959975411  0.1389999989995658   F   F   F
  0.8913424389942690  0.7782103825669030  0.3621950289370365   T   T   T
  0.5259058826929102  0.5184003037465337  0.4310586165735649   T   T   T
  0.1760802591142317  0.2598233635319148  0.5551613946664020   T   T   T
  0.5393614926934243  0.6836107244540238  0.4412001121287179   T   T   T
  0.2021460072208462  0.1953949127067917  0.5187198191149514   T   T   T
  0.1510238592267429  0.3247819605662183  0.5915620991769925   T   T   T
  0.5040064868684921  0.4155054116845495  0.4621074686300820   T   T   T
  0.1361439685499684  0.7026383015094527  0.4894754769790518   T   T   T
  0.2586973393387249  0.7820220398949461  0.5167927828086052   T   T   T
  0.6573766562137070  0.1919579425342951  0.4793183747807731   T   T   T
  0.7814939556502377  0.2107365872296837  0.5039101744169717   T   T   T
  0.6479516037012436  0.6454610865260743  0.5515818115591361   T   T   T
  0.7777552745049722  0.7962093499713445  0.5612070138889613   T   T   T
 
  0.00000000E+00  0.00000000E+00  0.00000000E+00
  0.00000000E+00  0.00000000E+00  0.00000000E+00
  0.00000000E+00  0.00000000E+00  0.00000000E+00
  0.00000000E+00  0.00000000E+00  0.00000000E+00
  0.00000000E+00  0.00000000E+00  0.00000000E+00
  0.00000000E+00  0.00000000E+00  0.00000000E+00
  0.00000000E+00  0.00000000E+00  0.00000000E+00
  0.00000000E+00  0.00000000E+00  0.00000000E+00
  0.00000000E+00  0.00000000E+00  0.00000000E+00
  0.00000000E+00  0.00000000E+00  0.00000000E+00
  0.00000000E+00  0.00000000E+00  0.00000000E+00
  0.00000000E+00  0.00000000E+00  0.00000000E+00
  0.00000000E+00  0.00000000E+00  0.00000000E+00
  0.00000000E+00  0.00000000E+00  0.00000000E+00
  0.00000000E+00  0.00000000E+00  0.00000000E+00
  0.00000000E+00  0.00000000E+00  0.00000000E+00
  0.00000000E+00  0.00000000E+00  0.00000000E+00
  0.00000000E+00  0.00000000E+00  0.00000000E+00
  0.00000000E+00  0.00000000E+00  0.00000000E+00
  0.00000000E+00  0.00000000E+00  0.00000000E+00
  0.00000000E+00  0.00000000E+00  0.00000000E+00
  0.00000000E+00  0.00000000E+00  0.00000000E+00
  0.00000000E+00  0.00000000E+00  0.00000000E+00
  0.00000000E+00  0.00000000E+00  0.00000000E+00
  0.00000000E+00  0.00000000E+00  0.00000000E+00
  0.00000000E+00  0.00000000E+00  0.00000000E+00
  0.00000000E+00  0.00000000E+00  0.00000000E+00
  0.00000000E+00  0.00000000E+00  0.00000000E+00
  0.00000000E+00  0.00000000E+00  0.00000000E+00
  0.00000000E+00  0.00000000E+00  0.00000000E+00
  0.00000000E+00  0.00000000E+00  0.00000000E+00
  0.00000000E+00  0.00000000E+00  0.00000000E+00
  0.00000000E+00  0.00000000E+00  0.00000000E+00
  0.00000000E+00  0.00000000E+00  0.00000000E+00
  0.00000000E+00  0.00000000E+00  0.00000000E+00
  0.00000000E+00  0.00000000E+00  0.00000000E+00
  0.00000000E+00  0.00000000E+00  0.00000000E+00
  0.00000000E+00  0.00000000E+00  0.00000000E+00
  0.00000000E+00  0.00000000E+00  0.00000000E+00
  0.00000000E+00  0.00000000E+00  0.00000000E+00
  0.00000000E+00  0.00000000E+00  0.00000000E+00
  0.00000000E+00  0.00000000E+00  0.00000000E+00
  0.00000000E+00  0.00000000E+00  0.00000000E+00
  0.00000000E+00  0.00000000E+00  0.00000000E+00
  0.00000000E+00  0.00000000E+00  0.00000000E+00
  0.00000000E+00  0.00000000E+00  0.00000000E+00
  0.00000000E+00  0.00000000E+00  0.00000000E+00
  0.00000000E+00  0.00000000E+00  0.00000000E+00
