hcp                                     
   1.00000000000000     
     7.6522998810000002    0.0000000000000000    0.0000000000000000
    -3.8261499405000001    6.6270860943000001    0.0000000000000000
     0.0000000000000000    0.0000000000000000   27.4960994720000009
   Cu   C    O 
    36     6    10
Selective dynamics
Direct
  0.0019022228293582  0.0011824177503200  0.2890424133457637   T   T   T
  0.1111100020012330  0.2222200040024589  0.2145799989997954   F   F   F
  0.2222200039975064  0.1111100020012330  0.1388300060009300   F   F   F
  0.2148430403957698  0.0961295549818375  0.3652546016311521   T   T   T
  0.0028502936518574  0.3349603451174480  0.2890239900118768   T   T   T
  0.1111100020002453  0.5555599930060779  0.2145799989997954   F   F   F
  0.2222200039935416  0.4444400069939221  0.1388300060009300   F   F   F
  0.2226714935273873  0.4495299244690619  0.3647382529150746   T   T   T
  0.9993047180591018  0.6656561947113684  0.2881314780092902   T   T   T
  0.1111100019933033  0.8888900279968723  0.2145799989997954   F   F   F
  0.2222200039925610  0.7777799959975411  0.1388300060009300   F   F   F
  0.2207871658196596  0.7741676965023372  0.3619047814011593   T   T   T
  0.3322430017728974  0.0012014784007015  0.2890091346132148   T   T   T
  0.4444400070018517  0.2222200040024589  0.2145799989997954   F   F   F
  0.5555599930031008  0.1111100020012330  0.1388300060009300   F   F   F
  0.5572697994736128  0.1109279838340288  0.3621263392222048   T   T   T
  0.3323148756507615  0.3317129351592691  0.2895236104098026   T   T   T
  0.4444400070008712  0.5555599930060779  0.2145799989997954   F   F   F
  0.5555599929991288  0.4444400069939221  0.1388300060009300   F   F   F
  0.5580450161217514  0.4511154953514389  0.3660155572901974   T   T   T
  0.3331389626775537  0.6656124623863962  0.2879674206385496   T   T   T
  0.4444400069939292  0.8888900279968723  0.2145799989997954   F   F   F
  0.5555599929981483  0.7777799959975411  0.1388300060009300   F   F   F
  0.5590434439322204  0.7846493149531533  0.3608182182963849   T   T   T
  0.6667125789522069  0.0009316252358003  0.2875520781327747   T   T   T
  0.7777799960074390  0.2222200040024589  0.2145799989997954   F   F   F
  0.8888900279947052  0.1111100020012330  0.1388300060009300   F   F   F
  0.8862248100590839  0.1106774869428456  0.3619953180797266   T   T   T
  0.6642071627715471  0.3354144004476578  0.2893301932869646   T   T   T
  0.7777799960064584  0.5555599930060779  0.2145799989997954   F   F   F
  0.8888900279907404  0.4444400069939221  0.1388300060009300   F   F   F
  0.8878067514109893  0.4441730405931485  0.3629251101384818   T   T   T
  0.6652062131657503  0.6650848012637551  0.2881162861800994   T   T   T
  0.7777799959995164  0.8888900279968723  0.2145799989997954   F   F   F
  0.8888900280028196  0.7777799959975411  0.1388300060009300   F   F   F
  0.8864026665531688  0.7742163615049829  0.3621074863909622   T   T   T
  0.4099193826762823  0.5514876123286595  0.4516044911293653   T   T   T
  0.3598297510060529  0.3919153183995599  0.4222829394872189   T   T   T
  0.2177425534805791  0.2726826304447994  0.5642586372813373   T   T   T
  0.7260180608150999  0.2481277222985745  0.5557803011081446   T   T   T
  0.7349484134914266  0.7699145661611505  0.5842906381172580   T   T   T
  0.2169613700144954  0.7724934155273520  0.5600995034741627   T   T   T
  0.4666902444626314  0.7006231342490179  0.4748290686351072   T   T   T
  0.2648095643505842  0.1960252711781628  0.4332105484326066   T   T   T
  0.2806972364217076  0.1751127585839500  0.5468051786409559   T   T   T
  0.1544841307505187  0.3707217018209417  0.5814140561708043   T   T   T
  0.7185077620533675  0.3090845169856413  0.5944819688989323   T   T   T
  0.7339898178326399  0.1865135856084984  0.5170959650095511   T   T   T
  0.8520265746897834  0.9184790931829251  0.6045082618518511   T   T   T
  0.6186215295071743  0.6215545649731968  0.5641800246346861   T   T   T
  0.0749147009470017  0.7038509400846200  0.5344521463252113   T   T   T
  0.3578783158208383  0.8409488220221331  0.5860481954671072   T   T   T
 
  0.00000000E+00  0.00000000E+00  0.00000000E+00
  0.00000000E+00  0.00000000E+00  0.00000000E+00
  0.00000000E+00  0.00000000E+00  0.00000000E+00
  0.00000000E+00  0.00000000E+00  0.00000000E+00
  0.00000000E+00  0.00000000E+00  0.00000000E+00
  0.00000000E+00  0.00000000E+00  0.00000000E+00
  0.00000000E+00  0.00000000E+00  0.00000000E+00
  0.00000000E+00  0.00000000E+00  0.00000000E+00
  0.00000000E+00  0.00000000E+00  0.00000000E+00
  0.00000000E+00  0.00000000E+00  0.00000000E+00
  0.00000000E+00  0.00000000E+00  0.00000000E+00
  0.00000000E+00  0.00000000E+00  0.00000000E+00
  0.00000000E+00  0.00000000E+00  0.00000000E+00
  0.00000000E+00  0.00000000E+00  0.00000000E+00
  0.00000000E+00  0.00000000E+00  0.00000000E+00
  0.00000000E+00  0.00000000E+00  0.00000000E+00
  0.00000000E+00  0.00000000E+00  0.00000000E+00
  0.00000000E+00  0.00000000E+00  0.00000000E+00
  0.00000000E+00  0.00000000E+00  0.00000000E+00
  0.00000000E+00  0.00000000E+00  0.00000000E+00
  0.00000000E+00  0.00000000E+00  0.00000000E+00
  0.00000000E+00  0.00000000E+00  0.00000000E+00
  0.00000000E+00  0.00000000E+00  0.00000000E+00
  0.00000000E+00  0.00000000E+00  0.00000000E+00
  0.00000000E+00  0.00000000E+00  0.00000000E+00
  0.00000000E+00  0.00000000E+00  0.00000000E+00
  0.00000000E+00  0.00000000E+00  0.00000000E+00
  0.00000000E+00  0.00000000E+00  0.00000000E+00
  0.00000000E+00  0.00000000E+00  0.00000000E+00
  0.00000000E+00  0.00000000E+00  0.00000000E+00
  0.00000000E+00  0.00000000E+00  0.00000000E+00
  0.00000000E+00  0.00000000E+00  0.00000000E+00
  0.00000000E+00  0.00000000E+00  0.00000000E+00
  0.00000000E+00  0.00000000E+00  0.00000000E+00
  0.00000000E+00  0.00000000E+00  0.00000000E+00
  0.00000000E+00  0.00000000E+00  0.00000000E+00
  0.00000000E+00  0.00000000E+00  0.00000000E+00
  0.00000000E+00  0.00000000E+00  0.00000000E+00
  0.00000000E+00  0.00000000E+00  0.00000000E+00
  0.00000000E+00  0.00000000E+00  0.00000000E+00
  0.00000000E+00  0.00000000E+00  0.00000000E+00
  0.00000000E+00  0.00000000E+00  0.00000000E+00
  0.00000000E+00  0.00000000E+00  0.00000000E+00
  0.00000000E+00  0.00000000E+00  0.00000000E+00
  0.00000000E+00  0.00000000E+00  0.00000000E+00
  0.00000000E+00  0.00000000E+00  0.00000000E+00
  0.00000000E+00  0.00000000E+00  0.00000000E+00
  0.00000000E+00  0.00000000E+00  0.00000000E+00
  0.00000000E+00  0.00000000E+00  0.00000000E+00
  0.00000000E+00  0.00000000E+00  0.00000000E+00
  0.00000000E+00  0.00000000E+00  0.00000000E+00
  0.00000000E+00  0.00000000E+00  0.00000000E+00
