coco                                    
   1.00000000000000     
     7.6522998810000002    0.0000000000000000    0.0000000000000000
    -3.8261499405000001    6.6270860943000001    0.0000000000000000
     0.0000000000000000    0.0000000000000000   27.4960994720000009
   Cu   C    O    N 
    36     3     4     6
Selective dynamics
Direct
  0.0023522221255294  0.0009719541312465  0.2891688147953483   T   T   T
  0.1111100020012330  0.2222200040024589  0.2147500070005535   F   F   F
  0.2222200039975064  0.1111100020012330  0.1389999989995658   F   F   F
  0.2221282261727411  0.1110893348644488  0.3657587201822241   T   T   T
  0.0024659742871769  0.3346219237679842  0.2890327247751489   T   T   T
  0.1111100020002453  0.5555599930060779  0.2147500070005535   F   F   F
  0.2222200039935416  0.4444400069939221  0.1389999989995658   F   F   F
  0.2219525790670912  0.4458217872188841  0.3643782501466133   T   T   T
  0.0024627807067542  0.6673768832712477  0.2890696789327826   T   T   T
  0.1111100019933033  0.8888900279968723  0.2147500070005535   F   F   F
  0.2222200039925610  0.7777799959975411  0.1389999989995658   F   F   F
  0.2219182409835232  0.7755575465859432  0.3644176500942671   T   T   T
  0.3321625834460674  0.9995519472433951  0.2898454528545091   T   T   T
  0.4444400070018517  0.2222200040024589  0.2147500070005535   F   F   F
  0.5555599930031008  0.1111100020012330  0.1389999989995658   F   F   F
  0.5610123070660703  0.1145083097752155  0.3621675321379629   T   T   T
  0.3322055138767109  0.3323243595408699  0.2898883668983938   T   T   T
  0.4444400070008712  0.5555599930060779  0.2147500070005535   F   F   F
  0.5555599929991288  0.4444400069939221  0.1389999989995658   F   F   F
  0.5610227463920133  0.4458286009224853  0.3621809372157661   T   T   T
  0.3339906137550416  0.6669249023024753  0.2872610563435388   T   T   T
  0.4444400069939292  0.8888900279968723  0.2147500070005535   F   F   F
  0.5555599929981483  0.7777799959975411  0.1389999989995658   F   F   F
  0.5583769418012162  0.7787727678407562  0.3644320953772971   T   T   T
  0.6653458289639863  0.9978484966668386  0.2886244413106306   T   T   T
  0.7777799960074390  0.2222200040024589  0.2147500070005535   F   F   F
  0.8888900279947052  0.1111100020012330  0.1389999989995658   F   F   F
  0.8873439558647098  0.1112753685490593  0.3625609333855336   T   T   T
  0.6668843720269690  0.3332300598251461  0.2881145921133110   T   T   T
  0.7777799960064584  0.5555599930060779  0.2147500070005535   F   F   F
  0.8888900279907404  0.4444400069939221  0.1389999989995658   F   F   F
  0.8869926715986632  0.4430104209653339  0.3624036906768203   T   T   T
  0.6654750549848913  0.6671696537794690  0.2886255891245753   T   T   T
  0.7777799959995164  0.8888900279968723  0.2147500070005535   F   F   F
  0.8888900280028196  0.7777799959975411  0.1389999989995658   F   F   F
  0.8873629073102863  0.7753675447888998  0.3625757356038444   T   T   T
  0.3362885012377445  0.6678099376139319  0.4159338874298767   T   T   T
  0.1936991844489922  0.2251539679929968  0.5967073785568280   T   T   T
  0.2309620715684095  0.1060163141576862  0.4329479702328885   T   T   T
  0.3379994316077446  0.6684349850678475  0.4589762440321518   T   T   T
  0.2591761075030049  0.1673689997370968  0.6274696942199012   T   T   T
  0.1281471774195406  0.2826762640862571  0.5658950870873537   T   T   T
  0.2353806662058534  0.1002524818605478  0.4749234099077908   T   T   T
  0.6685278772465619  0.2928107285563786  0.5330346112713796   T   T   T
  0.6901270992128520  0.2238394271161053  0.5665530496304896   T   T   T
  0.1934659383812781  0.7719083093617730  0.5613017002953987   T   T   T
  0.2943076397293006  0.7393795972395114  0.5840671408552877   T   T   T
  0.7501486740036566  0.7973105482096475  0.5290097405697100   T   T   T
  0.7473335491795219  0.7610615792187124  0.5683622922827469   T   T   T
 
  0.00000000E+00  0.00000000E+00  0.00000000E+00
  0.00000000E+00  0.00000000E+00  0.00000000E+00
  0.00000000E+00  0.00000000E+00  0.00000000E+00
  0.00000000E+00  0.00000000E+00  0.00000000E+00
  0.00000000E+00  0.00000000E+00  0.00000000E+00
  0.00000000E+00  0.00000000E+00  0.00000000E+00
  0.00000000E+00  0.00000000E+00  0.00000000E+00
  0.00000000E+00  0.00000000E+00  0.00000000E+00
  0.00000000E+00  0.00000000E+00  0.00000000E+00
  0.00000000E+00  0.00000000E+00  0.00000000E+00
  0.00000000E+00  0.00000000E+00  0.00000000E+00
  0.00000000E+00  0.00000000E+00  0.00000000E+00
  0.00000000E+00  0.00000000E+00  0.00000000E+00
  0.00000000E+00  0.00000000E+00  0.00000000E+00
  0.00000000E+00  0.00000000E+00  0.00000000E+00
  0.00000000E+00  0.00000000E+00  0.00000000E+00
  0.00000000E+00  0.00000000E+00  0.00000000E+00
  0.00000000E+00  0.00000000E+00  0.00000000E+00
  0.00000000E+00  0.00000000E+00  0.00000000E+00
  0.00000000E+00  0.00000000E+00  0.00000000E+00
  0.00000000E+00  0.00000000E+00  0.00000000E+00
  0.00000000E+00  0.00000000E+00  0.00000000E+00
  0.00000000E+00  0.00000000E+00  0.00000000E+00
  0.00000000E+00  0.00000000E+00  0.00000000E+00
  0.00000000E+00  0.00000000E+00  0.00000000E+00
  0.00000000E+00  0.00000000E+00  0.00000000E+00
  0.00000000E+00  0.00000000E+00  0.00000000E+00
  0.00000000E+00  0.00000000E+00  0.00000000E+00
  0.00000000E+00  0.00000000E+00  0.00000000E+00
  0.00000000E+00  0.00000000E+00  0.00000000E+00
  0.00000000E+00  0.00000000E+00  0.00000000E+00
  0.00000000E+00  0.00000000E+00  0.00000000E+00
  0.00000000E+00  0.00000000E+00  0.00000000E+00
  0.00000000E+00  0.00000000E+00  0.00000000E+00
  0.00000000E+00  0.00000000E+00  0.00000000E+00
  0.00000000E+00  0.00000000E+00  0.00000000E+00
  0.00000000E+00  0.00000000E+00  0.00000000E+00
  0.00000000E+00  0.00000000E+00  0.00000000E+00
  0.00000000E+00  0.00000000E+00  0.00000000E+00
  0.00000000E+00  0.00000000E+00  0.00000000E+00
  0.00000000E+00  0.00000000E+00  0.00000000E+00
  0.00000000E+00  0.00000000E+00  0.00000000E+00
  0.00000000E+00  0.00000000E+00  0.00000000E+00
  0.00000000E+00  0.00000000E+00  0.00000000E+00
  0.00000000E+00  0.00000000E+00  0.00000000E+00
  0.00000000E+00  0.00000000E+00  0.00000000E+00
  0.00000000E+00  0.00000000E+00  0.00000000E+00
  0.00000000E+00  0.00000000E+00  0.00000000E+00
  0.00000000E+00  0.00000000E+00  0.00000000E+00
