occo-fcc-4co2                           
   1.00000000000000     
     7.6522998810000002    0.0000000000000000    0.0000000000000000
    -3.8261499405000001    6.6270860943000001    0.0000000000000000
     0.0000000000000000    0.0000000000000000   27.4960994720000009
   Cu   C    O    N 
    36     3     4     6
Selective dynamics
Direct
  0.0013262789734174  0.9997320794745190  0.2890455431299243   T   T   T
  0.1111100020012330  0.2222200040024589  0.2145799989997954   F   F   F
  0.2222200039975064  0.1111100020012330  0.1388300060009300   F   F   F
  0.2137837442631388  0.0930443385425180  0.3651472748424987   T   T   T
  0.0032080864916226  0.3338841409537415  0.2892789603569094   T   T   T
  0.1111100020002453  0.5555599930060779  0.2145799989997954   F   F   F
  0.2222200039935416  0.4444400069939221  0.1388300060009300   F   F   F
  0.2237716976731850  0.4477195212846216  0.3657633605787565   T   T   T
  0.9992167448608467  0.6644388241667141  0.2882230124281039   T   T   T
  0.1111100019933033  0.8888900279968723  0.2145799989997954   F   F   F
  0.2222200039925610  0.7777799959975411  0.1388300060009300   F   F   F
  0.2201513814356467  0.7713435798391334  0.3621632569394299   T   T   T
  0.3321594249008495  0.9996912332306448  0.2890321461987492   T   T   T
  0.4444400070018517  0.2222200040024589  0.2145799989997954   F   F   F
  0.5555599930031008  0.1111100020012330  0.1388300060009300   F   F   F
  0.5568619066864090  0.1084987629237813  0.3621884908670152   T   T   T
  0.3318432918860163  0.3303833126917817  0.2896194743911436   T   T   T
  0.4444400070008712  0.5555599930060779  0.2145799989997954   F   F   F
  0.5555599929991288  0.4444400069939221  0.1388300060009300   F   F   F
  0.5577788159342492  0.4482453867462425  0.3655581011757201   T   T   T
  0.3327248469161267  0.6640048894956259  0.2881585517704076   T   T   T
  0.4444400069939292  0.8888900279968723  0.2145799989997954   F   F   F
  0.5555599929981483  0.7777799959975411  0.1388300060009300   F   F   F
  0.5583024932347295  0.7822978150107690  0.3610483358237893   T   T   T
  0.6664601231189522  0.9996122975799161  0.2876500700110328   T   T   T
  0.7777799960074390  0.2222200040024589  0.2145799989997954   F   F   F
  0.8888900279947052  0.1111100020012330  0.1388300060009300   F   F   F
  0.8858372358039509  0.1085905613911993  0.3621436075384026   T   T   T
  0.6641158792887887  0.3339690154569544  0.2893008006432710   T   T   T
  0.7777799960064584  0.5555599930060779  0.2145799989997954   F   F   F
  0.8888900279907404  0.4444400069939221  0.1388300060009300   F   F   F
  0.8877756662020300  0.4417054100783698  0.3630258335939067   T   T   T
  0.6650628960486270  0.6641553134011172  0.2881021164704831   T   T   T
  0.7777799959995164  0.8888900279968723  0.2145799989997954   F   F   F
  0.8888900280028196  0.7777799959975411  0.1388300060009300   F   F   F
  0.8854640657037455  0.7715062741722487  0.3621299287349408   T   T   T
  0.4435020793509165  0.5460981093895597  0.4538185350130068   T   T   T
  0.3599170834050605  0.3885941268228534  0.4226844323508479   T   T   T
  0.2217771985173405  0.2474188117860711  0.5829310045814747   T   T   T
  0.5181840698486896  0.6942241121646213  0.4777257439730745   T   T   T
  0.2665936293652875  0.1920072487475505  0.4331112109290004   T   T   T
  0.2405416524406000  0.1781069960208371  0.6193990642950573   T   T   T
  0.2036237374907985  0.3168329580687762  0.5463964275657129   T   T   T
  0.6731892923817132  0.3112818901128805  0.5079399288890880   T   T   T
  0.6916332146285089  0.2231663869349276  0.5377790780428460   T   T   T
  0.2106972225655092  0.7748405826008898  0.5428484340522350   T   T   T
  0.2615811955716957  0.7535311251855589  0.5792321834148143   T   T   T
  0.8058093173355287  0.8293206107267859  0.5752697035514936   T   T   T
  0.6793824693460874  0.6749241836926509  0.5836218884324677   T   T   T
 
  0.00000000E+00  0.00000000E+00  0.00000000E+00
  0.00000000E+00  0.00000000E+00  0.00000000E+00
  0.00000000E+00  0.00000000E+00  0.00000000E+00
  0.00000000E+00  0.00000000E+00  0.00000000E+00
  0.00000000E+00  0.00000000E+00  0.00000000E+00
  0.00000000E+00  0.00000000E+00  0.00000000E+00
  0.00000000E+00  0.00000000E+00  0.00000000E+00
  0.00000000E+00  0.00000000E+00  0.00000000E+00
  0.00000000E+00  0.00000000E+00  0.00000000E+00
  0.00000000E+00  0.00000000E+00  0.00000000E+00
  0.00000000E+00  0.00000000E+00  0.00000000E+00
  0.00000000E+00  0.00000000E+00  0.00000000E+00
  0.00000000E+00  0.00000000E+00  0.00000000E+00
  0.00000000E+00  0.00000000E+00  0.00000000E+00
  0.00000000E+00  0.00000000E+00  0.00000000E+00
  0.00000000E+00  0.00000000E+00  0.00000000E+00
  0.00000000E+00  0.00000000E+00  0.00000000E+00
  0.00000000E+00  0.00000000E+00  0.00000000E+00
  0.00000000E+00  0.00000000E+00  0.00000000E+00
  0.00000000E+00  0.00000000E+00  0.00000000E+00
  0.00000000E+00  0.00000000E+00  0.00000000E+00
  0.00000000E+00  0.00000000E+00  0.00000000E+00
  0.00000000E+00  0.00000000E+00  0.00000000E+00
  0.00000000E+00  0.00000000E+00  0.00000000E+00
  0.00000000E+00  0.00000000E+00  0.00000000E+00
  0.00000000E+00  0.00000000E+00  0.00000000E+00
  0.00000000E+00  0.00000000E+00  0.00000000E+00
  0.00000000E+00  0.00000000E+00  0.00000000E+00
  0.00000000E+00  0.00000000E+00  0.00000000E+00
  0.00000000E+00  0.00000000E+00  0.00000000E+00
  0.00000000E+00  0.00000000E+00  0.00000000E+00
  0.00000000E+00  0.00000000E+00  0.00000000E+00
  0.00000000E+00  0.00000000E+00  0.00000000E+00
  0.00000000E+00  0.00000000E+00  0.00000000E+00
  0.00000000E+00  0.00000000E+00  0.00000000E+00
  0.00000000E+00  0.00000000E+00  0.00000000E+00
  0.00000000E+00  0.00000000E+00  0.00000000E+00
  0.00000000E+00  0.00000000E+00  0.00000000E+00
  0.00000000E+00  0.00000000E+00  0.00000000E+00
  0.00000000E+00  0.00000000E+00  0.00000000E+00
  0.00000000E+00  0.00000000E+00  0.00000000E+00
  0.00000000E+00  0.00000000E+00  0.00000000E+00
  0.00000000E+00  0.00000000E+00  0.00000000E+00
  0.00000000E+00  0.00000000E+00  0.00000000E+00
  0.00000000E+00  0.00000000E+00  0.00000000E+00
  0.00000000E+00  0.00000000E+00  0.00000000E+00
  0.00000000E+00  0.00000000E+00  0.00000000E+00
  0.00000000E+00  0.00000000E+00  0.00000000E+00
  0.00000000E+00  0.00000000E+00  0.00000000E+00
