occo-3co2                               
   1.00000000000000     
     7.6522998810000002    0.0000000000000000    0.0000000000000000
    -3.8261499405000001    6.6270860943000001    0.0000000000000000
     0.0000000000000000    0.0000000000000000   27.4960994720000009
   Cu   C    O    N 
    36     5     8     2
Selective dynamics
Direct
  0.0016273019663545  0.0006214447387323  0.2891057233379289   T   T   T
  0.1111100020012330  0.2222200040024589  0.2145799989997954   F   F   F
  0.2222200039975064  0.1111100020012330  0.1388300060009300   F   F   F
  0.2146641112523572  0.0952816007732915  0.3653125206421024   T   T   T
  0.0031363942571283  0.3345794836411167  0.2891535661320619   T   T   T
  0.1111100020002453  0.5555599930060779  0.2145799989997954   F   F   F
  0.2222200039935416  0.4444400069939221  0.1388300060009300   F   F   F
  0.2235132596294671  0.4493154382303166  0.3652075666336494   T   T   T
  0.9993228705766171  0.6652437176404897  0.2881907567726106   T   T   T
  0.1111100019933033  0.8888900279968723  0.2145799989997954   F   F   F
  0.2222200039925610  0.7777799959975411  0.1388300060009300   F   F   F
  0.2206540971936317  0.7732014146874118  0.3620447762247860   T   T   T
  0.3322875524093292  0.0006558432288240  0.2890725141321666   T   T   T
  0.4444400070018517  0.2222200040024589  0.2145799989997954   F   F   F
  0.5555599930031008  0.1111100020012330  0.1388300060009300   F   F   F
  0.5572977965046220  0.1101256223221589  0.3621890707766897   T   T   T
  0.3322250207729817  0.3313224169067235  0.2895739584919248   T   T   T
  0.4444400070008712  0.5555599930060779  0.2145799989997954   F   F   F
  0.5555599929991288  0.4444400069939221  0.1388300060009300   F   F   F
  0.5580909790833707  0.4505038908756813  0.3659095652368031   T   T   T
  0.3330206737882981  0.6650456227135400  0.2880517976371833   T   T   T
  0.4444400069939292  0.8888900279968723  0.2145799989997954   F   F   F
  0.5555599929981483  0.7777799959975411  0.1388300060009300   F   F   F
  0.5588145669498104  0.7837474006836249  0.3609876341280573   T   T   T
  0.6666423131344160  0.0003885171949385  0.2876457462944774   T   T   T
  0.7777799960074390  0.2222200040024589  0.2145799989997954   F   F   F
  0.8888900279947052  0.1111100020012330  0.1388300060009300   F   F   F
  0.8861673271757803  0.1100190609489678  0.3621094253538175   T   T   T
  0.6641045252503261  0.3349052797546646  0.2893462790411276   T   T   T
  0.7777799960064584  0.5555599930060779  0.2145799989997954   F   F   F
  0.8888900279907404  0.4444400069939221  0.1388300060009300   F   F   F
  0.8879245883246704  0.4432402059773644  0.3629254494807013   T   T   T
  0.6652499317042156  0.6648355644833513  0.2881240765859884   T   T   T
  0.7777799959995164  0.8888900279968723  0.2145799989997954   F   F   F
  0.8888900280028196  0.7777799959975411  0.1388300060009300   F   F   F
  0.8862075416337079  0.7732650571416672  0.3621622031477143   T   T   T
  0.4242058934658954  0.5497620167621740  0.4537992669629884   T   T   T
  0.3606206165519595  0.3929316101928705  0.4226760298855669   T   T   T
  0.2020513802309573  0.2572163752538282  0.6140708264584529   T   T   T
  0.7024886545686149  0.7483478046896035  0.6022285005959082   T   T   T
  0.2068355682889865  0.7626236988213743  0.5901828700857334   T   T   T
  0.4862509493294626  0.6967860157966647  0.4778629732499557   T   T   T
  0.2665108760874401  0.1963550131244506  0.4331406987712977   T   T   T
  0.2798089985054872  0.1974669358893907  0.6410078435699638   T   T   T
  0.1247612843641586  0.3173139256451041  0.5871189210548801   T   T   T
  0.8084025491952588  0.8824779604282503  0.6280827492514253   T   T   T
  0.5961371281788616  0.6133163512349543  0.5767337381791771   T   T   T
  0.0870533430728202  0.7507603477647712  0.5615933529060358   T   T   T
  0.3263095886942201  0.7755494466031495  0.6189849536792541   T   T   T
  0.6200236524359625  0.1820889058056745  0.5564038438596302   T   T   T
  0.7064356417094866  0.2812522953666080  0.5874966532086590   T   T   T
 
  0.00000000E+00  0.00000000E+00  0.00000000E+00
  0.00000000E+00  0.00000000E+00  0.00000000E+00
  0.00000000E+00  0.00000000E+00  0.00000000E+00
  0.00000000E+00  0.00000000E+00  0.00000000E+00
  0.00000000E+00  0.00000000E+00  0.00000000E+00
  0.00000000E+00  0.00000000E+00  0.00000000E+00
  0.00000000E+00  0.00000000E+00  0.00000000E+00
  0.00000000E+00  0.00000000E+00  0.00000000E+00
  0.00000000E+00  0.00000000E+00  0.00000000E+00
  0.00000000E+00  0.00000000E+00  0.00000000E+00
  0.00000000E+00  0.00000000E+00  0.00000000E+00
  0.00000000E+00  0.00000000E+00  0.00000000E+00
  0.00000000E+00  0.00000000E+00  0.00000000E+00
  0.00000000E+00  0.00000000E+00  0.00000000E+00
  0.00000000E+00  0.00000000E+00  0.00000000E+00
  0.00000000E+00  0.00000000E+00  0.00000000E+00
  0.00000000E+00  0.00000000E+00  0.00000000E+00
  0.00000000E+00  0.00000000E+00  0.00000000E+00
  0.00000000E+00  0.00000000E+00  0.00000000E+00
  0.00000000E+00  0.00000000E+00  0.00000000E+00
  0.00000000E+00  0.00000000E+00  0.00000000E+00
  0.00000000E+00  0.00000000E+00  0.00000000E+00
  0.00000000E+00  0.00000000E+00  0.00000000E+00
  0.00000000E+00  0.00000000E+00  0.00000000E+00
  0.00000000E+00  0.00000000E+00  0.00000000E+00
  0.00000000E+00  0.00000000E+00  0.00000000E+00
  0.00000000E+00  0.00000000E+00  0.00000000E+00
  0.00000000E+00  0.00000000E+00  0.00000000E+00
  0.00000000E+00  0.00000000E+00  0.00000000E+00
  0.00000000E+00  0.00000000E+00  0.00000000E+00
  0.00000000E+00  0.00000000E+00  0.00000000E+00
  0.00000000E+00  0.00000000E+00  0.00000000E+00
  0.00000000E+00  0.00000000E+00  0.00000000E+00
  0.00000000E+00  0.00000000E+00  0.00000000E+00
  0.00000000E+00  0.00000000E+00  0.00000000E+00
  0.00000000E+00  0.00000000E+00  0.00000000E+00
  0.00000000E+00  0.00000000E+00  0.00000000E+00
  0.00000000E+00  0.00000000E+00  0.00000000E+00
  0.00000000E+00  0.00000000E+00  0.00000000E+00
  0.00000000E+00  0.00000000E+00  0.00000000E+00
  0.00000000E+00  0.00000000E+00  0.00000000E+00
  0.00000000E+00  0.00000000E+00  0.00000000E+00
  0.00000000E+00  0.00000000E+00  0.00000000E+00
  0.00000000E+00  0.00000000E+00  0.00000000E+00
  0.00000000E+00  0.00000000E+00  0.00000000E+00
  0.00000000E+00  0.00000000E+00  0.00000000E+00
  0.00000000E+00  0.00000000E+00  0.00000000E+00
  0.00000000E+00  0.00000000E+00  0.00000000E+00
  0.00000000E+00  0.00000000E+00  0.00000000E+00
  0.00000000E+00  0.00000000E+00  0.00000000E+00
  0.00000000E+00  0.00000000E+00  0.00000000E+00
