co                                      
   1.00000000000000     
     7.6522998810000002    0.0000000000000000    0.0000000000000000
    -3.8261499405000001    6.6270860943000001    0.0000000000000000
     0.0000000000000000    0.0000000000000000   27.4960994720000009
   Cu   C    O    N 
    36     3     5     4
Selective dynamics
Direct
  0.0007975123876484  0.0009904609517590  0.2885185098546953   T   T   T
  0.1111100020012330  0.2222200040024589  0.2147500070005535   F   F   F
  0.2222200039975064  0.1111100020012330  0.1389999989995658   F   F   F
  0.2229656168846858  0.1102792737395765  0.3625938844571964   T   T   T
  0.0033190863308894  0.3352399135324174  0.2891845137097234   T   T   T
  0.1111100020002453  0.5555599930060779  0.2147500070005535   F   F   F
  0.2222200039935416  0.4444400069939221  0.1389999989995658   F   F   F
  0.2237503248519431  0.4458888620621804  0.3653298370585739   T   T   T
  0.0008859015872156  0.6669532108339524  0.2885201882490485   T   T   T
  0.1111100019933033  0.8888900279968723  0.2147500070005535   F   F   F
  0.2222200039925610  0.7777799959975411  0.1389999989995658   F   F   F
  0.2229204324567318  0.7809986110604469  0.3626637705113439   T   T   T
  0.3347229705655178  0.0008838934987245  0.2885435617117353   T   T   T
  0.4444400070018517  0.2222200040024589  0.2147500070005535   F   F   F
  0.5555599930031008  0.1111100020012330  0.1389999989995658   F   F   F
  0.5579873345374078  0.1129187026036620  0.3628489074597026   T   T   T
  0.3351859145713233  0.3352226172506967  0.2888101962922329   T   T   T
  0.4444400070008712  0.5555599930060779  0.2147500070005535   F   F   F
  0.5555599929991288  0.4444400069939221  0.1389999989995658   F   F   F
  0.5588302234583492  0.4452716241128605  0.3650247085600625   T   T   T
  0.3349203757751406  0.6670768329470770  0.2887725034561863   T   T   T
  0.4444400069939292  0.8888900279968723  0.2147500070005535   F   F   F
  0.5555599929981483  0.7777799959975411  0.1389999989995658   F   F   F
  0.5589961295997719  0.7820156783130660  0.3650220401660473   T   T   T
  0.6667978549101082  0.9988409475400972  0.2891264852549356   T   T   T
  0.7777799960074390  0.2222200040024589  0.2147500070005535   F   F   F
  0.8888900279947052  0.1111100020012330  0.1389999989995658   F   F   F
  0.8909967338616990  0.1133791563279314  0.3628993841945914   T   T   T
  0.6667683999411502  0.3350832332983483  0.2891040685539065   T   T   T
  0.7777799960064584  0.5555599930060779  0.2147500070005535   F   F   F
  0.8888900279907404  0.4444400069939221  0.1389999989995658   F   F   F
  0.8910202758533423  0.4456096959045465  0.3627635552153656   T   T   T
  0.6667158801626567  0.6667446071227178  0.2886889809362692   T   T   T
  0.7777799959995164  0.8888900279968723  0.2147500070005535   F   F   F
  0.8888900280028196  0.7777799959975411  0.1389999989995658   F   F   F
  0.8939348383502034  0.7810305430214967  0.3624876739486148   T   T   T
  0.4500576547681188  0.5604081155263464  0.4160148181886080   T   T   T
  0.1751444703003412  0.2479636316968778  0.5222063783795498   T   T   T
  0.1985056509398209  0.7856012351179772  0.5205930159058856   T   T   T
  0.4542308291410176  0.5619019686672460  0.4591484740800931   T   T   T
  0.1216823654856256  0.1341855107573487  0.4893011486659967   T   T   T
  0.2266495212713784  0.3601775188770897  0.5552622155846894   T   T   T
  0.1431208432419322  0.6979245507079642  0.4835477256944562   T   T   T
  0.2540922916061401  0.8735611275343524  0.5576070944409994   T   T   T
  0.6894386430483757  0.8250486743722327  0.5560853123963466   T   T   T
  0.7663894534248279  0.7343181455499089  0.5530684534021328   T   T   T
  0.6114220090374012  0.2110752200019946  0.4852507749477889   T   T   T
  0.7615617956914162  0.2590424671729488  0.5019517931903326   T   T   T
 
  0.00000000E+00  0.00000000E+00  0.00000000E+00
  0.00000000E+00  0.00000000E+00  0.00000000E+00
  0.00000000E+00  0.00000000E+00  0.00000000E+00
  0.00000000E+00  0.00000000E+00  0.00000000E+00
  0.00000000E+00  0.00000000E+00  0.00000000E+00
  0.00000000E+00  0.00000000E+00  0.00000000E+00
  0.00000000E+00  0.00000000E+00  0.00000000E+00
  0.00000000E+00  0.00000000E+00  0.00000000E+00
  0.00000000E+00  0.00000000E+00  0.00000000E+00
  0.00000000E+00  0.00000000E+00  0.00000000E+00
  0.00000000E+00  0.00000000E+00  0.00000000E+00
  0.00000000E+00  0.00000000E+00  0.00000000E+00
  0.00000000E+00  0.00000000E+00  0.00000000E+00
  0.00000000E+00  0.00000000E+00  0.00000000E+00
  0.00000000E+00  0.00000000E+00  0.00000000E+00
  0.00000000E+00  0.00000000E+00  0.00000000E+00
  0.00000000E+00  0.00000000E+00  0.00000000E+00
  0.00000000E+00  0.00000000E+00  0.00000000E+00
  0.00000000E+00  0.00000000E+00  0.00000000E+00
  0.00000000E+00  0.00000000E+00  0.00000000E+00
  0.00000000E+00  0.00000000E+00  0.00000000E+00
  0.00000000E+00  0.00000000E+00  0.00000000E+00
  0.00000000E+00  0.00000000E+00  0.00000000E+00
  0.00000000E+00  0.00000000E+00  0.00000000E+00
  0.00000000E+00  0.00000000E+00  0.00000000E+00
  0.00000000E+00  0.00000000E+00  0.00000000E+00
  0.00000000E+00  0.00000000E+00  0.00000000E+00
  0.00000000E+00  0.00000000E+00  0.00000000E+00
  0.00000000E+00  0.00000000E+00  0.00000000E+00
  0.00000000E+00  0.00000000E+00  0.00000000E+00
  0.00000000E+00  0.00000000E+00  0.00000000E+00
  0.00000000E+00  0.00000000E+00  0.00000000E+00
  0.00000000E+00  0.00000000E+00  0.00000000E+00
  0.00000000E+00  0.00000000E+00  0.00000000E+00
  0.00000000E+00  0.00000000E+00  0.00000000E+00
  0.00000000E+00  0.00000000E+00  0.00000000E+00
  0.00000000E+00  0.00000000E+00  0.00000000E+00
  0.00000000E+00  0.00000000E+00  0.00000000E+00
  0.00000000E+00  0.00000000E+00  0.00000000E+00
  0.00000000E+00  0.00000000E+00  0.00000000E+00
  0.00000000E+00  0.00000000E+00  0.00000000E+00
  0.00000000E+00  0.00000000E+00  0.00000000E+00
  0.00000000E+00  0.00000000E+00  0.00000000E+00
  0.00000000E+00  0.00000000E+00  0.00000000E+00
  0.00000000E+00  0.00000000E+00  0.00000000E+00
  0.00000000E+00  0.00000000E+00  0.00000000E+00
  0.00000000E+00  0.00000000E+00  0.00000000E+00
  0.00000000E+00  0.00000000E+00  0.00000000E+00
