co-fcc-4co2                             
   1.00000000000000     
     7.6522998810000002    0.0000000000000000    0.0000000000000000
    -3.8261499405000001    6.6270860943000001    0.0000000000000000
     0.0000000000000000    0.0000000000000000   27.4960994720000009
   Cu   C    O 
    36     6    10
Selective dynamics
Direct
  0.0032184989773349  0.0022230994041940  0.2894061411198044   T   T   T
  0.1111100020012330  0.2222200040024589  0.2147500070005535   F   F   F
  0.2222200039975064  0.1111100020012330  0.1389999989995658   F   F   F
  0.2241291918432647  0.1134714613802896  0.3653691656337983   T   T   T
  0.0012274564208528  0.3344940710870959  0.2884170715836040   T   T   T
  0.1111100020002453  0.5555599930060779  0.2147500070005535   F   F   F
  0.2222200039935416  0.4444400069939221  0.1389999989995658   F   F   F
  0.2205454087932741  0.4470712251405554  0.3625280446513178   T   T   T
  0.0007730312573642  0.6673432765847520  0.2882543303183768   T   T   T
  0.1111100019933033  0.8888900279968723  0.2147500070005535   F   F   F
  0.2222200039925610  0.7777799959975411  0.1389999989995658   F   F   F
  0.2199944688527892  0.7778617259884941  0.3622905586324777   T   T   T
  0.3336129803027367  0.0018911119060105  0.2894441912077427   T   T   T
  0.4444400070018517  0.2222200040024589  0.2147500070005535   F   F   F
  0.5555599930031008  0.1111100020012330  0.1389999989995658   F   F   F
  0.5612057910005535  0.1157894056690699  0.3623245787080012   T   T   T
  0.3338048081585522  0.3337665638040311  0.2893404572238841   T   T   T
  0.4444400070008712  0.5555599930060779  0.2147500070005535   F   F   F
  0.5555599929991288  0.4444400069939221  0.1389999989995658   F   F   F
  0.5622657849215362  0.4471945767437682  0.3621476198749411   T   T   T
  0.3354671743440754  0.6684115309489818  0.2882753676880244   T   T   T
  0.4444400069939292  0.8888900279968723  0.2147500070005535   F   F   F
  0.5555599929981483  0.7777799959975411  0.1389999989995658   F   F   F
  0.5586468151877372  0.7809803468122191  0.3643616436503506   T   T   T
  0.6660704591898476 -0.0017583952639619  0.2889555607147078   T   T   T
  0.7777799960074390  0.2222200040024589  0.2147500070005535   F   F   F
  0.8888900279947052  0.1111100020012330  0.1389999989995658   F   F   F
  0.8899396564451802  0.1145941199967797  0.3624957198998173   T   T   T
  0.6672851584138968  0.3341356968880984  0.2882014687081600   T   T   T
  0.7777799960064584  0.5555599930060779  0.2147500070005535   F   F   F
  0.8888900279907404  0.4444400069939221  0.1389999989995658   F   F   F
  0.8905033027020074  0.4463947722229214  0.3623270968856983   T   T   T
  0.6662735462729195  0.6686273644867908  0.2887518232677881   T   T   T
  0.7777799959995164  0.8888900279968723  0.2147500070005535   F   F   F
  0.8888900280028196  0.7777799959975411  0.1389999989995658   F   F   F
  0.8910665328855970  0.7781402066663469  0.3624078497050199   T   T   T
  0.4645315585313463  0.7059430183607518  0.4270875833992415   T   T   T
  0.2146270282292104  0.2747201997636051  0.5718896586295782   T   T   T
  0.7221068016702581  0.2339440125316954  0.5365185904802888   T   T   T
  0.7216439857042273  0.7590780796348984  0.5718887891200979   T   T   T
  0.2274084558075833  0.7884856609083576  0.5461423964556891   T   T   T
  0.2637493700240930  0.1589763827013324  0.4312310454548153   T   T   T
  0.4195381933364380  0.6695819706380104  0.4677627819832810   T   T   T
  0.2818177327763923  0.1783089825822329  0.5877645211209599   T   T   T
  0.1468903041409776  0.3709378926602235  0.5560287382862915   T   T   T
  0.7347355193718065  0.3006927984210935  0.5755893821746609   T   T   T
  0.7085534426945553  0.1662357987530605  0.4972690367398819   T   T   T
  0.8215514168643819  0.9142311409966027  0.5917084710388765   T   T   T
  0.6221225156327554  0.6041825204748875  0.5521022100522114   T   T   T
  0.0876396790199620  0.7485080218537821  0.5211029662973199   T   T   T
  0.3672069817672239  0.8297323935552194  0.5711630956360513   T   T   T
  0.2880321528294152  0.1888983720721534  0.4726951884913761   T   T   T
 
  0.00000000E+00  0.00000000E+00  0.00000000E+00
  0.00000000E+00  0.00000000E+00  0.00000000E+00
  0.00000000E+00  0.00000000E+00  0.00000000E+00
  0.00000000E+00  0.00000000E+00  0.00000000E+00
  0.00000000E+00  0.00000000E+00  0.00000000E+00
  0.00000000E+00  0.00000000E+00  0.00000000E+00
  0.00000000E+00  0.00000000E+00  0.00000000E+00
  0.00000000E+00  0.00000000E+00  0.00000000E+00
  0.00000000E+00  0.00000000E+00  0.00000000E+00
  0.00000000E+00  0.00000000E+00  0.00000000E+00
  0.00000000E+00  0.00000000E+00  0.00000000E+00
  0.00000000E+00  0.00000000E+00  0.00000000E+00
  0.00000000E+00  0.00000000E+00  0.00000000E+00
  0.00000000E+00  0.00000000E+00  0.00000000E+00
  0.00000000E+00  0.00000000E+00  0.00000000E+00
  0.00000000E+00  0.00000000E+00  0.00000000E+00
  0.00000000E+00  0.00000000E+00  0.00000000E+00
  0.00000000E+00  0.00000000E+00  0.00000000E+00
  0.00000000E+00  0.00000000E+00  0.00000000E+00
  0.00000000E+00  0.00000000E+00  0.00000000E+00
  0.00000000E+00  0.00000000E+00  0.00000000E+00
  0.00000000E+00  0.00000000E+00  0.00000000E+00
  0.00000000E+00  0.00000000E+00  0.00000000E+00
  0.00000000E+00  0.00000000E+00  0.00000000E+00
  0.00000000E+00  0.00000000E+00  0.00000000E+00
  0.00000000E+00  0.00000000E+00  0.00000000E+00
  0.00000000E+00  0.00000000E+00  0.00000000E+00
  0.00000000E+00  0.00000000E+00  0.00000000E+00
  0.00000000E+00  0.00000000E+00  0.00000000E+00
  0.00000000E+00  0.00000000E+00  0.00000000E+00
  0.00000000E+00  0.00000000E+00  0.00000000E+00
  0.00000000E+00  0.00000000E+00  0.00000000E+00
  0.00000000E+00  0.00000000E+00  0.00000000E+00
  0.00000000E+00  0.00000000E+00  0.00000000E+00
  0.00000000E+00  0.00000000E+00  0.00000000E+00
  0.00000000E+00  0.00000000E+00  0.00000000E+00
  0.00000000E+00  0.00000000E+00  0.00000000E+00
  0.00000000E+00  0.00000000E+00  0.00000000E+00
  0.00000000E+00  0.00000000E+00  0.00000000E+00
  0.00000000E+00  0.00000000E+00  0.00000000E+00
  0.00000000E+00  0.00000000E+00  0.00000000E+00
  0.00000000E+00  0.00000000E+00  0.00000000E+00
  0.00000000E+00  0.00000000E+00  0.00000000E+00
  0.00000000E+00  0.00000000E+00  0.00000000E+00
  0.00000000E+00  0.00000000E+00  0.00000000E+00
  0.00000000E+00  0.00000000E+00  0.00000000E+00
  0.00000000E+00  0.00000000E+00  0.00000000E+00
  0.00000000E+00  0.00000000E+00  0.00000000E+00
  0.00000000E+00  0.00000000E+00  0.00000000E+00
  0.00000000E+00  0.00000000E+00  0.00000000E+00
  0.00000000E+00  0.00000000E+00  0.00000000E+00
  0.00000000E+00  0.00000000E+00  0.00000000E+00
