occo-fcc-4co2                           
   1.00000000000000     
     7.6522998810000002    0.0000000000000000    0.0000000000000000
    -3.8261499405000001    6.6270860943000001    0.0000000000000000
     0.0000000000000000    0.0000000000000000   27.4960994720000009
   Cu   C    O    N 
    36     4     6     4
Selective dynamics
Direct
  0.0013596459326469  0.0004493913038805  0.2891041050502225   T   T   T
  0.1111100020012330  0.2222200040024589  0.2145799989997954   F   F   F
  0.2222200039975064  0.1111100020012330  0.1388300060009300   F   F   F
  0.2139753665760808  0.0943768827899255  0.3654218290067318   T   T   T
  0.0029267926384722  0.3344692311615087  0.2891648284656438   T   T   T
  0.1111100020002453  0.5555599930060779  0.2145799989997954   F   F   F
  0.2222200039935416  0.4444400069939221  0.1388300060009300   F   F   F
  0.2233335819602036  0.4488212074442908  0.3653513851795944   T   T   T
  0.9989281958617425  0.6650031458345876  0.2881031373870030   T   T   T
  0.1111100019933033  0.8888900279968723  0.2145799989997954   F   F   F
  0.2222200039925610  0.7777799959975411  0.1388300060009300   F   F   F
  0.2201729727766793  0.7727345324902700  0.3619754381383099   T   T   T
  0.3319692124721966  0.0004208323591776  0.2890395536969989   T   T   T
  0.4444400070018517  0.2222200040024589  0.2145799989997954   F   F   F
  0.5555599930031008  0.1111100020012330  0.1388300060009300   F   F   F
  0.5568664382230453  0.1096547649947796  0.3622115370405977   T   T   T
  0.3316995694038885  0.3307415754599820  0.2896930321267333   T   T   T
  0.4444400070008712  0.5555599930060779  0.2145799989997954   F   F   F
  0.5555599929991288  0.4444400069939221  0.1388300060009300   F   F   F
  0.5575125902733259  0.4502083074347548  0.3659554562986406   T   T   T
  0.3326769492659706  0.6646380624798136  0.2880251167263217   T   T   T
  0.4444400069939292  0.8888900279968723  0.2145799989997954   F   F   F
  0.5555599929981483  0.7777799959975411  0.1388300060009300   F   F   F
  0.5583836878264044  0.7838079870212010  0.3608829727923717   T   T   T
  0.6664706322899501  0.0004079046005310  0.2875453672119520   T   T   T
  0.7777799960074390  0.2222200040024589  0.2145799989997954   F   F   F
  0.8888900279947052  0.1111100020012330  0.1388300060009300   F   F   F
  0.8855395565735722  0.1098637476489512  0.3621027852516997   T   T   T
  0.6637979620988999  0.3346879541446452  0.2893646157739790   T   T   T
  0.7777799960064584  0.5555599930060779  0.2145799989997954   F   F   F
  0.8888900279907404  0.4444400069939221  0.1388300060009300   F   F   F
  0.8878211053815330  0.4433247272856332  0.3629328824379665   T   T   T
  0.6648659434996330  0.6645586620299790  0.2881369830219799   T   T   T
  0.7777799959995164  0.8888900279968723  0.2145799989997954   F   F   F
  0.8888900280028196  0.7777799959975411  0.1388300060009300   F   F   F
  0.8857799417511243  0.7730064829277131  0.3621462047912613   T   T   T
  0.4215982525140658  0.5486692416953491  0.4532818603302333   T   T   T
  0.3597294823958703  0.3898500878136301  0.4228434290957377   T   T   T
  0.2093111205077775  0.2242640672967506  0.5861227009183327   T   T   T
  0.7007721797879709  0.7372447310493875  0.5921981095175111   T   T   T
  0.4861967064133844  0.6989214819658228  0.4762959473234671   T   T   T
  0.2665408992647397  0.1938243880858412  0.4334576275771684   T   T   T
  0.2702854588717610  0.1897972269601135  0.6219933131520234   T   T   T
  0.1484749285692026  0.2582725649217023  0.5501487524655323   T   T   T
  0.7917513449568084  0.8917644589935354  0.6128743018395015   T   T   T
  0.6101491539695806  0.5824079427740988  0.5716855595762158   T   T   T
  0.6598029274652446  0.1928791557868303  0.5178092935671200   T   T   T
  0.7060001282826137  0.2276810417293417  0.5566664667558623   T   T   T
  0.1147116438005495  0.7492289017497467  0.5547834622338369   T   T   T
  0.2433962849333801  0.7321787695253907  0.5677320865254820   T   T   T
 
  0.00000000E+00  0.00000000E+00  0.00000000E+00
  0.00000000E+00  0.00000000E+00  0.00000000E+00
  0.00000000E+00  0.00000000E+00  0.00000000E+00
  0.00000000E+00  0.00000000E+00  0.00000000E+00
  0.00000000E+00  0.00000000E+00  0.00000000E+00
  0.00000000E+00  0.00000000E+00  0.00000000E+00
  0.00000000E+00  0.00000000E+00  0.00000000E+00
  0.00000000E+00  0.00000000E+00  0.00000000E+00
  0.00000000E+00  0.00000000E+00  0.00000000E+00
  0.00000000E+00  0.00000000E+00  0.00000000E+00
  0.00000000E+00  0.00000000E+00  0.00000000E+00
  0.00000000E+00  0.00000000E+00  0.00000000E+00
  0.00000000E+00  0.00000000E+00  0.00000000E+00
  0.00000000E+00  0.00000000E+00  0.00000000E+00
  0.00000000E+00  0.00000000E+00  0.00000000E+00
  0.00000000E+00  0.00000000E+00  0.00000000E+00
  0.00000000E+00  0.00000000E+00  0.00000000E+00
  0.00000000E+00  0.00000000E+00  0.00000000E+00
  0.00000000E+00  0.00000000E+00  0.00000000E+00
  0.00000000E+00  0.00000000E+00  0.00000000E+00
  0.00000000E+00  0.00000000E+00  0.00000000E+00
  0.00000000E+00  0.00000000E+00  0.00000000E+00
  0.00000000E+00  0.00000000E+00  0.00000000E+00
  0.00000000E+00  0.00000000E+00  0.00000000E+00
  0.00000000E+00  0.00000000E+00  0.00000000E+00
  0.00000000E+00  0.00000000E+00  0.00000000E+00
  0.00000000E+00  0.00000000E+00  0.00000000E+00
  0.00000000E+00  0.00000000E+00  0.00000000E+00
  0.00000000E+00  0.00000000E+00  0.00000000E+00
  0.00000000E+00  0.00000000E+00  0.00000000E+00
  0.00000000E+00  0.00000000E+00  0.00000000E+00
  0.00000000E+00  0.00000000E+00  0.00000000E+00
  0.00000000E+00  0.00000000E+00  0.00000000E+00
  0.00000000E+00  0.00000000E+00  0.00000000E+00
  0.00000000E+00  0.00000000E+00  0.00000000E+00
  0.00000000E+00  0.00000000E+00  0.00000000E+00
  0.00000000E+00  0.00000000E+00  0.00000000E+00
  0.00000000E+00  0.00000000E+00  0.00000000E+00
  0.00000000E+00  0.00000000E+00  0.00000000E+00
  0.00000000E+00  0.00000000E+00  0.00000000E+00
  0.00000000E+00  0.00000000E+00  0.00000000E+00
  0.00000000E+00  0.00000000E+00  0.00000000E+00
  0.00000000E+00  0.00000000E+00  0.00000000E+00
  0.00000000E+00  0.00000000E+00  0.00000000E+00
  0.00000000E+00  0.00000000E+00  0.00000000E+00
  0.00000000E+00  0.00000000E+00  0.00000000E+00
  0.00000000E+00  0.00000000E+00  0.00000000E+00
  0.00000000E+00  0.00000000E+00  0.00000000E+00
  0.00000000E+00  0.00000000E+00  0.00000000E+00
  0.00000000E+00  0.00000000E+00  0.00000000E+00
