co-fcc                                  
   1.00000000000000     
     7.6522998810000002    0.0000000000000000    0.0000000000000000
    -3.8261499405000001    6.6270860943000001    0.0000000000000000
     0.0000000000000000    0.0000000000000000   27.4960994720000009
   Cu   C    O 
    36     5     9
Selective dynamics
Direct
 -0.0007565289736771  0.0005386418593556  0.2884985376131733   T   T   T
  0.1111100020012330  0.2222200040024589  0.2147500070005535   F   F   F
  0.2222200039975064  0.1111100020012330  0.1389999989995658   F   F   F
  0.2204533822206966  0.1094553438888175  0.3625627715122692   T   T   T
  0.0018086629496175  0.3351326189990190  0.2892260190809726   T   T   T
  0.1111100020002453  0.5555599930060779  0.2147500070005535   F   F   F
  0.2222200039935416  0.4444400069939221  0.1389999989995658   F   F   F
  0.2196721158385390  0.4445895757131488  0.3649921661968521   T   T   T
 -0.0007284790558191  0.6662579228953621  0.2884383721823501   T   T   T
  0.1111100019933033  0.8888900279968723  0.2147500070005535   F   F   F
  0.2222200039925610  0.7777799959975411  0.1389999989995658   F   F   F
  0.2200357325055551  0.7802508246798157  0.3623971212293814   T   T   T
  0.3334427680115230  0.0005035703511632  0.2884945031414625   T   T   T
  0.4444400070018517  0.2222200040024589  0.2147500070005535   F   F   F
  0.5555599930031008  0.1111100020012330  0.1389999989995658   F   F   F
  0.5552252466411394  0.1132761124950336  0.3629777571980871   T   T   T
  0.3335379572613894  0.3348460821129624  0.2888968188210885   T   T   T
  0.4444400070008712  0.5555599930060779  0.2147500070005535   F   F   F
  0.5555599929991288  0.4444400069939221  0.1389999989995658   F   F   F
  0.5549100920166744  0.4459062510928509  0.3658274138228109   T   T   T
  0.3331530010505693  0.6664805651811208  0.2885901455108051   T   T   T
  0.4444400069939292  0.8888900279968723  0.2147500070005535   F   F   F
  0.5555599929981483  0.7777799959975411  0.1389999989995658   F   F   F
  0.5563813407740457  0.7815136795133661  0.3644521516221698   T   T   T
  0.6650659441274833  0.9987584350782545  0.2890866358274947   T   T   T
  0.7777799960074390  0.2222200040024589  0.2147500070005535   F   F   F
  0.8888900279947052  0.1111100020012330  0.1389999989995658   F   F   F
  0.8884127405261844  0.1127839642991459  0.3627816935334499   T   T   T
  0.6645373913144816  0.3352583315476820  0.2893444154024866   T   T   T
  0.7777799960064584  0.5555599930060779  0.2147500070005535   F   F   F
  0.8888900279907404  0.4444400069939221  0.1389999989995658   F   F   F
  0.8873989673564444  0.4449164919781986  0.3629941711382451   T   T   T
  0.6650878303503579  0.6663060183338403  0.2887610988127829   T   T   T
  0.7777799959995164  0.8888900279968723  0.2147500070005535   F   F   F
  0.8888900280028196  0.7777799959975411  0.1389999989995658   F   F   F
  0.8910972338553277  0.7800131205293747  0.3623802678687104   T   T   T
  0.4426164878029994  0.5626321815804387  0.4159256257041207   T   T   T
  0.2259986368262741  0.2729815837692416  0.5347877700953960   T   T   T
  0.7337057333967059  0.2480316078871913  0.5360840318481761   T   T   T
  0.7640027165937588  0.7852810540706390  0.5737463832020437   T   T   T
  0.2163341060898722  0.7695271236697103  0.5328925645428103   T   T   T
  0.4396001573987239  0.5696508385925764  0.4589348408101959   T   T   T
  0.2821314090840715  0.1762366085729099  0.5138005072362084   T   T   T
  0.1682050175300771  0.3685870739357133  0.5555385313052296   T   T   T
  0.7263601144228116  0.3184889195297703  0.5734584939156484   T   T   T
  0.7413588675179844  0.1768042287184196  0.4987377432194170   T   T   T
  0.9081617414968302  0.9280694390469060  0.5892659386956719   T   T   T
  0.6199374228295588  0.6435913007582078  0.5583423075074032   T   T   T
  0.0794791557549645  0.6927261009509885  0.5056896660644871   T   T   T
  0.3523811484632256  0.8466440145155290  0.5601738383625178   T   T   T
 
  0.00000000E+00  0.00000000E+00  0.00000000E+00
  0.00000000E+00  0.00000000E+00  0.00000000E+00
  0.00000000E+00  0.00000000E+00  0.00000000E+00
  0.00000000E+00  0.00000000E+00  0.00000000E+00
  0.00000000E+00  0.00000000E+00  0.00000000E+00
  0.00000000E+00  0.00000000E+00  0.00000000E+00
  0.00000000E+00  0.00000000E+00  0.00000000E+00
  0.00000000E+00  0.00000000E+00  0.00000000E+00
  0.00000000E+00  0.00000000E+00  0.00000000E+00
  0.00000000E+00  0.00000000E+00  0.00000000E+00
  0.00000000E+00  0.00000000E+00  0.00000000E+00
  0.00000000E+00  0.00000000E+00  0.00000000E+00
  0.00000000E+00  0.00000000E+00  0.00000000E+00
  0.00000000E+00  0.00000000E+00  0.00000000E+00
  0.00000000E+00  0.00000000E+00  0.00000000E+00
  0.00000000E+00  0.00000000E+00  0.00000000E+00
  0.00000000E+00  0.00000000E+00  0.00000000E+00
  0.00000000E+00  0.00000000E+00  0.00000000E+00
  0.00000000E+00  0.00000000E+00  0.00000000E+00
  0.00000000E+00  0.00000000E+00  0.00000000E+00
  0.00000000E+00  0.00000000E+00  0.00000000E+00
  0.00000000E+00  0.00000000E+00  0.00000000E+00
  0.00000000E+00  0.00000000E+00  0.00000000E+00
  0.00000000E+00  0.00000000E+00  0.00000000E+00
  0.00000000E+00  0.00000000E+00  0.00000000E+00
  0.00000000E+00  0.00000000E+00  0.00000000E+00
  0.00000000E+00  0.00000000E+00  0.00000000E+00
  0.00000000E+00  0.00000000E+00  0.00000000E+00
  0.00000000E+00  0.00000000E+00  0.00000000E+00
  0.00000000E+00  0.00000000E+00  0.00000000E+00
  0.00000000E+00  0.00000000E+00  0.00000000E+00
  0.00000000E+00  0.00000000E+00  0.00000000E+00
  0.00000000E+00  0.00000000E+00  0.00000000E+00
  0.00000000E+00  0.00000000E+00  0.00000000E+00
  0.00000000E+00  0.00000000E+00  0.00000000E+00
  0.00000000E+00  0.00000000E+00  0.00000000E+00
  0.00000000E+00  0.00000000E+00  0.00000000E+00
  0.00000000E+00  0.00000000E+00  0.00000000E+00
  0.00000000E+00  0.00000000E+00  0.00000000E+00
  0.00000000E+00  0.00000000E+00  0.00000000E+00
  0.00000000E+00  0.00000000E+00  0.00000000E+00
  0.00000000E+00  0.00000000E+00  0.00000000E+00
  0.00000000E+00  0.00000000E+00  0.00000000E+00
  0.00000000E+00  0.00000000E+00  0.00000000E+00
  0.00000000E+00  0.00000000E+00  0.00000000E+00
  0.00000000E+00  0.00000000E+00  0.00000000E+00
  0.00000000E+00  0.00000000E+00  0.00000000E+00
  0.00000000E+00  0.00000000E+00  0.00000000E+00
  0.00000000E+00  0.00000000E+00  0.00000000E+00
  0.00000000E+00  0.00000000E+00  0.00000000E+00
