coco-3co2                               
   1.00000000000000     
     7.6522998810000002    0.0000000000000000    0.0000000000000000
    -3.8261499405000001    6.6270860943000001    0.0000000000000000
     0.0000000000000000    0.0000000000000000   27.4960994720000009
   Cu   C    O    N 
    36     5     8     2
Selective dynamics
Direct
  0.0026792631371223  0.0013964885097456  0.2891748743113061   T   T   T
  0.1111100020012330  0.2222200040024589  0.2147500070005535   F   F   F
  0.2222200039975064  0.1111100020012330  0.1389999989995658   F   F   F
  0.2222788482230741  0.1113357486493846  0.3658660190016003   T   T   T
  0.0022795481676675  0.3348894122832565  0.2890412003392029   T   T   T
  0.1111100020002453  0.5555599930060779  0.2147500070005535   F   F   F
  0.2222200039935416  0.4444400069939221  0.1389999989995658   F   F   F
  0.2212966406704152  0.4461398393667358  0.3645363083809037   T   T   T
  0.0021729884988880  0.6674293303733014  0.2890117793956904   T   T   T
  0.1111100019933033  0.8888900279968723  0.2147500070005535   F   F   F
  0.2222200039925610  0.7777799959975411  0.1389999989995658   F   F   F
  0.2211773028301751  0.7757180306811610  0.3644331029398946   T   T   T
  0.3320891765945130 -0.0004533802661101  0.2897726943694999   T   T   T
  0.4444400070018517  0.2222200040024589  0.2147500070005535   F   F   F
  0.5555599930031008  0.1111100020012330  0.1389999989995658   F   F   F
  0.5608239225913508  0.1144960403128569  0.3620499532179705   T   T   T
  0.3321074476537327  0.3328549593045354  0.2897826803055871   T   T   T
  0.4444400070008712  0.5555599930060779  0.2147500070005535   F   F   F
  0.5555599929991288  0.4444400069939221  0.1389999989995658   F   F   F
  0.5608906812251589  0.4465203127371190  0.3620658500850636   T   T   T
  0.3338353308951811  0.6670019181046849  0.2873423947462245   T   T   T
  0.4444400069939292  0.8888900279968723  0.2147500070005535   F   F   F
  0.5555599929981483  0.7777799959975411  0.1389999989995658   F   F   F
  0.5577656726866670  0.7790192373872042  0.3646759599276049   T   T   T
  0.6652728370035175  0.9979017870457412  0.2886249027309541   T   T   T
  0.7777799960074390  0.2222200040024589  0.2147500070005535   F   F   F
  0.8888900279947052  0.1111100020012330  0.1389999989995658   F   F   F
  0.8874002883380721  0.1114693397729282  0.3625183173140787   T   T   T
  0.6665445600437083  0.3333612157815098  0.2880855031785483   T   T   T
  0.7777799960064584  0.5555599930060779  0.2147500070005535   F   F   F
  0.8888900279907404  0.4444400069939221  0.1389999989995658   F   F   F
  0.8865224761711252  0.4433363925282601  0.3623504106390900   T   T   T
  0.6652393305651511  0.6674992763479198  0.2886367034885094   T   T   T
  0.7777799959995164  0.8888900279968723  0.2147500070005535   F   F   F
  0.8888900280028196  0.7777799959975411  0.1389999989995658   F   F   F
  0.8874162140896572  0.7761905015139594  0.3625286019326665   T   T   T
  0.3356484409509940  0.6685310797816355  0.4163059548886522   T   T   T
  0.1923243279054226  0.2512816085430770  0.6136330098182489   T   T   T
  0.6900193975361237  0.7484414378914386  0.5948771152287833   T   T   T
  0.2090611324746930  0.7699916011153368  0.5985174969242280   T   T   T
  0.2542724692479938  0.1308050215704910  0.4328268946346496   T   T   T
  0.3358779613218111  0.6692829534022174  0.4593015256811859   T   T   T
  0.2846842856557928  0.2054271743331013  0.6396845119843069   T   T   T
  0.1007206124643202  0.2975878092216420  0.5874990434702196   T   T   T
  0.7913716916479235  0.8408454145275135  0.6280369396096260   T   T   T
  0.5883409766814000  0.6558411996179792  0.5618062944190254   T   T   T
  0.1236139179667141  0.7939884259253158  0.5659685657227952   T   T   T
  0.2946717619147538  0.7466938393714452  0.6311531067968552   T   T   T
  0.2717274832126374  0.1423220885616519  0.4746779776975117   T   T   T
  0.6349897876647274  0.1599324084576388  0.5703818767470584   T   T   T
  0.7074720778892932  0.3171656487466327  0.5846525720683672   T   T   T
 
  0.00000000E+00  0.00000000E+00  0.00000000E+00
  0.00000000E+00  0.00000000E+00  0.00000000E+00
  0.00000000E+00  0.00000000E+00  0.00000000E+00
  0.00000000E+00  0.00000000E+00  0.00000000E+00
  0.00000000E+00  0.00000000E+00  0.00000000E+00
  0.00000000E+00  0.00000000E+00  0.00000000E+00
  0.00000000E+00  0.00000000E+00  0.00000000E+00
  0.00000000E+00  0.00000000E+00  0.00000000E+00
  0.00000000E+00  0.00000000E+00  0.00000000E+00
  0.00000000E+00  0.00000000E+00  0.00000000E+00
  0.00000000E+00  0.00000000E+00  0.00000000E+00
  0.00000000E+00  0.00000000E+00  0.00000000E+00
  0.00000000E+00  0.00000000E+00  0.00000000E+00
  0.00000000E+00  0.00000000E+00  0.00000000E+00
  0.00000000E+00  0.00000000E+00  0.00000000E+00
  0.00000000E+00  0.00000000E+00  0.00000000E+00
  0.00000000E+00  0.00000000E+00  0.00000000E+00
  0.00000000E+00  0.00000000E+00  0.00000000E+00
  0.00000000E+00  0.00000000E+00  0.00000000E+00
  0.00000000E+00  0.00000000E+00  0.00000000E+00
  0.00000000E+00  0.00000000E+00  0.00000000E+00
  0.00000000E+00  0.00000000E+00  0.00000000E+00
  0.00000000E+00  0.00000000E+00  0.00000000E+00
  0.00000000E+00  0.00000000E+00  0.00000000E+00
  0.00000000E+00  0.00000000E+00  0.00000000E+00
  0.00000000E+00  0.00000000E+00  0.00000000E+00
  0.00000000E+00  0.00000000E+00  0.00000000E+00
  0.00000000E+00  0.00000000E+00  0.00000000E+00
  0.00000000E+00  0.00000000E+00  0.00000000E+00
  0.00000000E+00  0.00000000E+00  0.00000000E+00
  0.00000000E+00  0.00000000E+00  0.00000000E+00
  0.00000000E+00  0.00000000E+00  0.00000000E+00
  0.00000000E+00  0.00000000E+00  0.00000000E+00
  0.00000000E+00  0.00000000E+00  0.00000000E+00
  0.00000000E+00  0.00000000E+00  0.00000000E+00
  0.00000000E+00  0.00000000E+00  0.00000000E+00
  0.00000000E+00  0.00000000E+00  0.00000000E+00
  0.00000000E+00  0.00000000E+00  0.00000000E+00
  0.00000000E+00  0.00000000E+00  0.00000000E+00
  0.00000000E+00  0.00000000E+00  0.00000000E+00
  0.00000000E+00  0.00000000E+00  0.00000000E+00
  0.00000000E+00  0.00000000E+00  0.00000000E+00
  0.00000000E+00  0.00000000E+00  0.00000000E+00
  0.00000000E+00  0.00000000E+00  0.00000000E+00
  0.00000000E+00  0.00000000E+00  0.00000000E+00
  0.00000000E+00  0.00000000E+00  0.00000000E+00
  0.00000000E+00  0.00000000E+00  0.00000000E+00
  0.00000000E+00  0.00000000E+00  0.00000000E+00
  0.00000000E+00  0.00000000E+00  0.00000000E+00
  0.00000000E+00  0.00000000E+00  0.00000000E+00
  0.00000000E+00  0.00000000E+00  0.00000000E+00
