co-fcc                                  
   1.00000000000000     
     7.6522998810000002    0.0000000000000000    0.0000000000000000
    -3.8261499405000001    6.6270860943000001    0.0000000000000000
     0.0000000000000000    0.0000000000000000   27.4960994720000009
   Cu   C    O    H 
    36     5     9     1
Selective dynamics
Direct
 -0.0001928275638419  0.0015842143094534  0.2882957241617254   T   T   T
  0.1111100020012330  0.2222200040024589  0.2147500070005535   F   F   F
  0.2222200039975064  0.1111100020012330  0.1389999989995658   F   F   F
  0.2200973110529171  0.1077282045355910  0.3620133161577340   T   T   T
  0.0028684542272579  0.3364369421763514  0.2888868835718530   T   T   T
  0.1111100020002453  0.5555599930060779  0.2147500070005535   F   F   F
  0.2222200039935416  0.4444400069939221  0.1389999989995658   F   F   F
  0.2242830841128187  0.4416533721084369  0.3648147313915912   T   T   T
  0.0000320193334967  0.6668463308127131  0.2881363901974338   T   T   T
  0.1111100019933033  0.8888900279968723  0.2147500070005535   F   F   F
  0.2222200039925610  0.7777799959975411  0.1389999989995658   F   F   F
  0.2206573423328164  0.7805970024512676  0.3621644146763846   T   T   T
  0.3347815600020415  0.0016937200298210  0.2883082514993911   T   T   T
  0.4444400070018517  0.2222200040024589  0.2147500070005535   F   F   F
  0.5555599930031008  0.1111100020012330  0.1389999989995658   F   F   F
  0.5572388252327258  0.1174843933865836  0.3624846565396063   T   T   T
  0.3337591571779027  0.3345395958729820  0.2878733755780524   T   T   T
  0.4444400070008712  0.5555599930060779  0.2147500070005535   F   F   F
  0.5555599929991288  0.4444400069939221  0.1389999989995658   F   F   F
  0.5508462524327499  0.4426066518948842  0.3649602801754124   T   T   T
  0.3353377760436128  0.6676075365655759  0.2894655615432087   T   T   T
  0.4444400069939292  0.8888900279968723  0.2147500070005535   F   F   F
  0.5555599929981483  0.7777799959975411  0.1389999989995658   F   F   F
  0.5629857784079647  0.7952027794174701  0.3649165492847784   T   T   T
  0.6664981891820423  0.0002504399688026  0.2889824577487700   T   T   T
  0.7777799960074390  0.2222200040024589  0.2147500070005535   F   F   F
  0.8888900279947052  0.1111100020012330  0.1389999989995658   F   F   F
  0.8925795325204595  0.1170850306715522  0.3624981046269976   T   T   T
  0.6659952268872855  0.3364248149557814  0.2888611354223636   T   T   T
  0.7777799960064584  0.5555599930060779  0.2147500070005535   F   F   F
  0.8888900279907404  0.4444400069939221  0.1389999989995658   F   F   F
  0.8902085874355319  0.4480212694801135  0.3626798082609521   T   T   T
  0.6650709781886778  0.6676982580769000  0.2894842596759253   T   T   T
  0.7777799959995164  0.8888900279968723  0.2147500070005535   F   F   F
  0.8888900280028196  0.7777799959975411  0.1389999989995658   F   F   F
  0.8920892720348048  0.7804023316619954  0.3621531629422517   T   T   T
  0.4201666289007311  0.4989223079687074  0.4238497837709135   T   T   T
  0.1806908296045120  0.2546450546440622  0.5477097862568644   T   T   T
  0.7211246552105932  0.2574122091858373  0.5371530735273456   T   T   T
  0.7062442522095381  0.7480259193469980  0.5625715318136260   T   T   T
  0.2115944799878254  0.7701016285210395  0.5366839890781578   T   T   T
  0.5028187489593696  0.6818971749217398  0.4368540584876870   T   T   T
  0.2335235189572502  0.1732817198707691  0.5199647947920069   T   T   T
  0.1276425933519673  0.3367286467219084  0.5750572231769547   T   T   T
  0.7052728648280261  0.3440228206334678  0.5706360549058535   T   T   T
  0.7371242295030916  0.1704232045867920  0.5037066990849659   T   T   T
  0.8579519691059608  0.8658909430193817  0.5814822357612677   T   T   T
  0.5548247216630253  0.6307739623679866  0.5437187951919442   T   T   T
  0.0896104740795430  0.6745744438550094  0.5071227292384262   T   T   T
  0.3329110722195462  0.8654151955173540  0.5663402362227200   T   T   T
  0.3662059202826115  0.3862734459082288  0.4536811210629133   T   T   T
 
  0.00000000E+00  0.00000000E+00  0.00000000E+00
  0.00000000E+00  0.00000000E+00  0.00000000E+00
  0.00000000E+00  0.00000000E+00  0.00000000E+00
  0.00000000E+00  0.00000000E+00  0.00000000E+00
  0.00000000E+00  0.00000000E+00  0.00000000E+00
  0.00000000E+00  0.00000000E+00  0.00000000E+00
  0.00000000E+00  0.00000000E+00  0.00000000E+00
  0.00000000E+00  0.00000000E+00  0.00000000E+00
  0.00000000E+00  0.00000000E+00  0.00000000E+00
  0.00000000E+00  0.00000000E+00  0.00000000E+00
  0.00000000E+00  0.00000000E+00  0.00000000E+00
  0.00000000E+00  0.00000000E+00  0.00000000E+00
  0.00000000E+00  0.00000000E+00  0.00000000E+00
  0.00000000E+00  0.00000000E+00  0.00000000E+00
  0.00000000E+00  0.00000000E+00  0.00000000E+00
  0.00000000E+00  0.00000000E+00  0.00000000E+00
  0.00000000E+00  0.00000000E+00  0.00000000E+00
  0.00000000E+00  0.00000000E+00  0.00000000E+00
  0.00000000E+00  0.00000000E+00  0.00000000E+00
  0.00000000E+00  0.00000000E+00  0.00000000E+00
  0.00000000E+00  0.00000000E+00  0.00000000E+00
  0.00000000E+00  0.00000000E+00  0.00000000E+00
  0.00000000E+00  0.00000000E+00  0.00000000E+00
  0.00000000E+00  0.00000000E+00  0.00000000E+00
  0.00000000E+00  0.00000000E+00  0.00000000E+00
  0.00000000E+00  0.00000000E+00  0.00000000E+00
  0.00000000E+00  0.00000000E+00  0.00000000E+00
  0.00000000E+00  0.00000000E+00  0.00000000E+00
  0.00000000E+00  0.00000000E+00  0.00000000E+00
  0.00000000E+00  0.00000000E+00  0.00000000E+00
  0.00000000E+00  0.00000000E+00  0.00000000E+00
  0.00000000E+00  0.00000000E+00  0.00000000E+00
  0.00000000E+00  0.00000000E+00  0.00000000E+00
  0.00000000E+00  0.00000000E+00  0.00000000E+00
  0.00000000E+00  0.00000000E+00  0.00000000E+00
  0.00000000E+00  0.00000000E+00  0.00000000E+00
  0.00000000E+00  0.00000000E+00  0.00000000E+00
  0.00000000E+00  0.00000000E+00  0.00000000E+00
  0.00000000E+00  0.00000000E+00  0.00000000E+00
  0.00000000E+00  0.00000000E+00  0.00000000E+00
  0.00000000E+00  0.00000000E+00  0.00000000E+00
  0.00000000E+00  0.00000000E+00  0.00000000E+00
  0.00000000E+00  0.00000000E+00  0.00000000E+00
  0.00000000E+00  0.00000000E+00  0.00000000E+00
  0.00000000E+00  0.00000000E+00  0.00000000E+00
  0.00000000E+00  0.00000000E+00  0.00000000E+00
  0.00000000E+00  0.00000000E+00  0.00000000E+00
  0.00000000E+00  0.00000000E+00  0.00000000E+00
  0.00000000E+00  0.00000000E+00  0.00000000E+00
  0.00000000E+00  0.00000000E+00  0.00000000E+00
  0.00000000E+00  0.00000000E+00  0.00000000E+00
