coco                                    
   1.00000000000000     
     7.6522998810000002    0.0000000000000000    0.0000000000000000
    -3.8261499405000001    6.6270860943000001    0.0000000000000000
     0.0000000000000000    0.0000000000000000   27.4960994720000009
   Cu   C    O    N 
    36     4     6     4
Selective dynamics
Direct
  0.0023946533218813  0.0013994321427162  0.2893004431636055   T   T   T
  0.1111100020012330  0.2222200040024589  0.2147500070005535   F   F   F
  0.2222200039975064  0.1111100020012330  0.1389999989995658   F   F   F
  0.2215383917870364  0.1112417480671707  0.3657220843649302   T   T   T
  0.0022320241195265  0.3348046686164544  0.2890120550701430   T   T   T
  0.1111100020002453  0.5555599930060779  0.2147500070005535   F   F   F
  0.2222200039935416  0.4444400069939221  0.1389999989995658   F   F   F
  0.2210145318885487  0.4460642586167101  0.3646230132184720   T   T   T
  0.0020017508334190  0.6677145982075328  0.2889048251744437   T   T   T
  0.1111100019933033  0.8888900279968723  0.2147500070005535   F   F   F
  0.2222200039925610  0.7777799959975411  0.1389999989995658   F   F   F
  0.2207111628014025  0.7756568928065579  0.3641417385241955   T   T   T
  0.3321168144698217 -0.0002239807291342  0.2896783139569920   T   T   T
  0.4444400070018517  0.2222200040024589  0.2147500070005535   F   F   F
  0.5555599930031008  0.1111100020012330  0.1389999989995658   F   F   F
  0.5609349344658584  0.1148745880984552  0.3621609059302094   T   T   T
  0.3318988975035781  0.3327519621773756  0.2898040051090985   T   T   T
  0.4444400070008712  0.5555599930060779  0.2147500070005535   F   F   F
  0.5555599929991288  0.4444400069939221  0.1389999989995658   F   F   F
  0.5608830891061684  0.4464845927643751  0.3621949643158116   T   T   T
  0.3339338133193141  0.6670304120248346  0.2873320655824187   T   T   T
  0.4444400069939292  0.8888900279968723  0.2147500070005535   F   F   F
  0.5555599929981483  0.7777799959975411  0.1389999989995658   F   F   F
  0.5570456668724511  0.7787728921962361  0.3650663964996358   T   T   T
  0.6651532399665737  0.9978517663307700  0.2887596159396971   T   T   T
  0.7777799960074390  0.2222200040024589  0.2147500070005535   F   F   F
  0.8888900279947052  0.1111100020012330  0.1389999989995658   F   F   F
  0.8869968350439218  0.1115151126770697  0.3626484031290242   T   T   T
  0.6662486388589313  0.3333272147552258  0.2880569626712708   T   T   T
  0.7777799960064584  0.5555599930060779  0.2147500070005535   F   F   F
  0.8888900279907404  0.4444400069939221  0.1389999989995658   F   F   F
  0.8863179769449802  0.4434294732399970  0.3620565658997832   T   T   T
  0.6651043063436277  0.6675748559353825  0.2887135109769970   T   T   T
  0.7777799959995164  0.8888900279968723  0.2147500070005535   F   F   F
  0.8888900280028196  0.7777799959975411  0.1389999989995658   F   F   F
  0.8867090956922852  0.7759869535289976  0.3625754130417475   T   T   T
  0.3335731581708942  0.6680898524703850  0.4161818222482386   T   T   T
  0.2119415672930793  0.2640275128139852  0.5866164961202760   T   T   T
  0.6993837423548422  0.7546040133498405  0.5648783771554752   T   T   T
  0.2456651828506244  0.1160814193716904  0.4324953549108161   T   T   T
  0.3293240791618481  0.6695495702809647  0.4591394896282974   T   T   T
  0.3106854632625112  0.2385996046478433  0.6154442535776714   T   T   T
  0.1139089473915822  0.2900928834536545  0.5577364616327695   T   T   T
  0.7597265531313602  0.8588191642020790  0.5994266208335651   T   T   T
  0.6390161393833529  0.6509690864906614  0.5302454984696302   T   T   T
  0.2583150109285102  0.1161870602668157  0.4744255718838876   T   T   T
  0.6695921739334516  0.1728347469210699  0.5198353059830575   T   T   T
  0.7030188986432415  0.2859561415700164  0.5491350232942062   T   T   T
  0.1358929971034033  0.7799719437024420  0.5618935273107432   T   T   T
  0.2677463207802824  0.7642799856362164  0.5726534419701828   T   T   T
 
  0.00000000E+00  0.00000000E+00  0.00000000E+00
  0.00000000E+00  0.00000000E+00  0.00000000E+00
  0.00000000E+00  0.00000000E+00  0.00000000E+00
  0.00000000E+00  0.00000000E+00  0.00000000E+00
  0.00000000E+00  0.00000000E+00  0.00000000E+00
  0.00000000E+00  0.00000000E+00  0.00000000E+00
  0.00000000E+00  0.00000000E+00  0.00000000E+00
  0.00000000E+00  0.00000000E+00  0.00000000E+00
  0.00000000E+00  0.00000000E+00  0.00000000E+00
  0.00000000E+00  0.00000000E+00  0.00000000E+00
  0.00000000E+00  0.00000000E+00  0.00000000E+00
  0.00000000E+00  0.00000000E+00  0.00000000E+00
  0.00000000E+00  0.00000000E+00  0.00000000E+00
  0.00000000E+00  0.00000000E+00  0.00000000E+00
  0.00000000E+00  0.00000000E+00  0.00000000E+00
  0.00000000E+00  0.00000000E+00  0.00000000E+00
  0.00000000E+00  0.00000000E+00  0.00000000E+00
  0.00000000E+00  0.00000000E+00  0.00000000E+00
  0.00000000E+00  0.00000000E+00  0.00000000E+00
  0.00000000E+00  0.00000000E+00  0.00000000E+00
  0.00000000E+00  0.00000000E+00  0.00000000E+00
  0.00000000E+00  0.00000000E+00  0.00000000E+00
  0.00000000E+00  0.00000000E+00  0.00000000E+00
  0.00000000E+00  0.00000000E+00  0.00000000E+00
  0.00000000E+00  0.00000000E+00  0.00000000E+00
  0.00000000E+00  0.00000000E+00  0.00000000E+00
  0.00000000E+00  0.00000000E+00  0.00000000E+00
  0.00000000E+00  0.00000000E+00  0.00000000E+00
  0.00000000E+00  0.00000000E+00  0.00000000E+00
  0.00000000E+00  0.00000000E+00  0.00000000E+00
  0.00000000E+00  0.00000000E+00  0.00000000E+00
  0.00000000E+00  0.00000000E+00  0.00000000E+00
  0.00000000E+00  0.00000000E+00  0.00000000E+00
  0.00000000E+00  0.00000000E+00  0.00000000E+00
  0.00000000E+00  0.00000000E+00  0.00000000E+00
  0.00000000E+00  0.00000000E+00  0.00000000E+00
  0.00000000E+00  0.00000000E+00  0.00000000E+00
  0.00000000E+00  0.00000000E+00  0.00000000E+00
  0.00000000E+00  0.00000000E+00  0.00000000E+00
  0.00000000E+00  0.00000000E+00  0.00000000E+00
  0.00000000E+00  0.00000000E+00  0.00000000E+00
  0.00000000E+00  0.00000000E+00  0.00000000E+00
  0.00000000E+00  0.00000000E+00  0.00000000E+00
  0.00000000E+00  0.00000000E+00  0.00000000E+00
  0.00000000E+00  0.00000000E+00  0.00000000E+00
  0.00000000E+00  0.00000000E+00  0.00000000E+00
  0.00000000E+00  0.00000000E+00  0.00000000E+00
  0.00000000E+00  0.00000000E+00  0.00000000E+00
  0.00000000E+00  0.00000000E+00  0.00000000E+00
  0.00000000E+00  0.00000000E+00  0.00000000E+00
