cho                                     
   1.00000000000000     
     7.6522998810000002    0.0000000000000000    0.0000000000000000
    -3.8261499405000001    6.6270860943000001    0.0000000000000000
     0.0000000000000000    0.0000000000000000   27.4960994720000009
   Cu   C    O    H    N 
    36     3     5     1     4
Selective dynamics
Direct
  0.9993410939976655  0.0000087623249466  0.2882119680959630   T   T   T
  0.1111100020012330  0.2222200040024589  0.2147500070005535   F   F   F
  0.2222200039975064  0.1111100020012330  0.1389999989995658   F   F   F
  0.2184548357245266  0.1046149238856516  0.3619499064576420   T   T   T
  0.0024099364828941  0.3349135546570706  0.2887903009371022   T   T   T
  0.1111100020002453  0.5555599930060779  0.2147500070005535   F   F   F
  0.2222200039935416  0.4444400069939221  0.1389999989995658   F   F   F
  0.2234122877585915  0.4383421560661143  0.3650258514314675   T   T   T
  0.9995139650370203  0.6656739722604232  0.2880090977500357   T   T   T
  0.1111100019933033  0.8888900279968723  0.2147500070005535   F   F   F
  0.2222200039925610  0.7777799959975411  0.1389999989995658   F   F   F
  0.2192973994219360  0.7772882401358704  0.3619719822311638   T   T   T
  0.3342197823817653  0.0003952682247951  0.2882226945385141   T   T   T
  0.4444400070018517  0.2222200040024589  0.2147500070005535   F   F   F
  0.5555599930031008  0.1111100020012330  0.1389999989995658   F   F   F
  0.5556939030569068  0.1134140089548427  0.3622013431028608   T   T   T
  0.3334473739866859  0.3333080722550738  0.2879975927127773   T   T   T
  0.4444400070008712  0.5555599930060779  0.2147500070005535   F   F   F
  0.5555599929991288  0.4444400069939221  0.1389999989995658   F   F   F
  0.5496136947251430  0.4390304118657073  0.3652565349711079   T   T   T
  0.3346724369714353  0.6655860457097993  0.2895844832364797   T   T   T
  0.4444400069939292  0.8888900279968723  0.2147500070005535   F   F   F
  0.5555599929981483  0.7777799959975411  0.1389999989995658   F   F   F
  0.5613928642117300  0.7908725948272967  0.3651127130099002   T   T   T
  0.6657345341537384  0.9979139250781351  0.2888906667667996   T   T   T
  0.7777799960074390  0.2222200040024589  0.2147500070005535   F   F   F
  0.8888900279947052  0.1111100020012330  0.1389999989995658   F   F   F
  0.8910265337915698  0.1136759591045705  0.3623260711155965   T   T   T
  0.6654784705947251  0.3348442282435857  0.2888151695853861   T   T   T
  0.7777799960064584  0.5555599930060779  0.2147500070005535   F   F   F
  0.8888900279907404  0.4444400069939221  0.1389999989995658   F   F   F
  0.8893011778870688  0.4448816430462639  0.3624788760528426   T   T   T
  0.6642964028692284  0.6658621108331310  0.2895189282510356   T   T   T
  0.7777799959995164  0.8888900279968723  0.2147500070005535   F   F   F
  0.8888900280028196  0.7777799959975411  0.1389999989995658   F   F   F
  0.8904252499184938  0.7769728914472978  0.3621190689261002   T   T   T
  0.4245519419972828  0.4905677877544737  0.4250389839427776   T   T   T
  0.1748983346659143  0.2486227997605422  0.5624347909977924   T   T   T
  0.7119503408279605  0.7366113672760997  0.5718443745023909   T   T   T
  0.4966232728498587  0.6723596324944865  0.4377304227858595   T   T   T
  0.1619290736592801  0.1748067223272815  0.5240496855395306   T   T   T
  0.1881386953659432  0.3223616964168012  0.6007361947931533   T   T   T
  0.8247062909242580  0.8609624327978914  0.5989534184492268   T   T   T
  0.5992686163413102  0.6119771613279281  0.5448853550771002   T   T   T
  0.3695846756198732  0.3779798535181715  0.4549810822134201   T   T   T
  0.1496021639620235  0.7303437750104198  0.5555721678225333   T   T   T
  0.3036207483464423  0.7973369279919776  0.5715854838070451   T   T   T
  0.7062373533753958  0.2212359792359785  0.5374910263063221   T   T   T
  0.7103199063398202  0.2853120781869157  0.5741633432826959   T   T   T
 
  0.00000000E+00  0.00000000E+00  0.00000000E+00
  0.00000000E+00  0.00000000E+00  0.00000000E+00
  0.00000000E+00  0.00000000E+00  0.00000000E+00
  0.00000000E+00  0.00000000E+00  0.00000000E+00
  0.00000000E+00  0.00000000E+00  0.00000000E+00
  0.00000000E+00  0.00000000E+00  0.00000000E+00
  0.00000000E+00  0.00000000E+00  0.00000000E+00
  0.00000000E+00  0.00000000E+00  0.00000000E+00
  0.00000000E+00  0.00000000E+00  0.00000000E+00
  0.00000000E+00  0.00000000E+00  0.00000000E+00
  0.00000000E+00  0.00000000E+00  0.00000000E+00
  0.00000000E+00  0.00000000E+00  0.00000000E+00
  0.00000000E+00  0.00000000E+00  0.00000000E+00
  0.00000000E+00  0.00000000E+00  0.00000000E+00
  0.00000000E+00  0.00000000E+00  0.00000000E+00
  0.00000000E+00  0.00000000E+00  0.00000000E+00
  0.00000000E+00  0.00000000E+00  0.00000000E+00
  0.00000000E+00  0.00000000E+00  0.00000000E+00
  0.00000000E+00  0.00000000E+00  0.00000000E+00
  0.00000000E+00  0.00000000E+00  0.00000000E+00
  0.00000000E+00  0.00000000E+00  0.00000000E+00
  0.00000000E+00  0.00000000E+00  0.00000000E+00
  0.00000000E+00  0.00000000E+00  0.00000000E+00
  0.00000000E+00  0.00000000E+00  0.00000000E+00
  0.00000000E+00  0.00000000E+00  0.00000000E+00
  0.00000000E+00  0.00000000E+00  0.00000000E+00
  0.00000000E+00  0.00000000E+00  0.00000000E+00
  0.00000000E+00  0.00000000E+00  0.00000000E+00
  0.00000000E+00  0.00000000E+00  0.00000000E+00
  0.00000000E+00  0.00000000E+00  0.00000000E+00
  0.00000000E+00  0.00000000E+00  0.00000000E+00
  0.00000000E+00  0.00000000E+00  0.00000000E+00
  0.00000000E+00  0.00000000E+00  0.00000000E+00
  0.00000000E+00  0.00000000E+00  0.00000000E+00
  0.00000000E+00  0.00000000E+00  0.00000000E+00
  0.00000000E+00  0.00000000E+00  0.00000000E+00
  0.00000000E+00  0.00000000E+00  0.00000000E+00
  0.00000000E+00  0.00000000E+00  0.00000000E+00
  0.00000000E+00  0.00000000E+00  0.00000000E+00
  0.00000000E+00  0.00000000E+00  0.00000000E+00
  0.00000000E+00  0.00000000E+00  0.00000000E+00
  0.00000000E+00  0.00000000E+00  0.00000000E+00
  0.00000000E+00  0.00000000E+00  0.00000000E+00
  0.00000000E+00  0.00000000E+00  0.00000000E+00
  0.00000000E+00  0.00000000E+00  0.00000000E+00
  0.00000000E+00  0.00000000E+00  0.00000000E+00
  0.00000000E+00  0.00000000E+00  0.00000000E+00
  0.00000000E+00  0.00000000E+00  0.00000000E+00
  0.00000000E+00  0.00000000E+00  0.00000000E+00
